LAMMPS (15 Jul 2015)
WARNING: OMP_NUM_THREADS environment is not set. (../comm.cpp:89)
  using 1 OpenMP thread(s) per MPI task
units real
boundary p p p

atom_style full
bond_style harmonic
angle_style harmonic
special_bonds lj/coul 0.0 0.0 0.5

pair_style lj/cut/coul/long 12.0 12.0
kspace_style pppm 1.0e-3

comm_modify vel yes
read_data data.swm4-ndp
  orthogonal box = (-12 -12 -12) to (12 12 12)
  1 by 1 by 1 MPI processor grid
  reading atoms ...
  2500 atoms
  scanning bonds ...
  1 = max bonds/atom
  scanning angles ...
  1 = max angles/atom
  reading bonds ...
  2000 bonds
  reading angles ...
  500 angles
  4 = max # of 1-2 neighbors
  3 = max # of 1-3 neighbors
  3 = max # of 1-4 neighbors
  4 = max # of special neighbors

pair_coeff    1    1      0.210939     3.183950  # ODw ODw
pair_coeff    *   2*      0.000000     0.0

group ATOMS type 1:3
2000 atoms in group ATOMS
group CORES type 1
500 atoms in group CORES
group DRUDES type 4
500 atoms in group DRUDES

variable TK equal 300.0
variable TDK equal 1.0
variable PBAR equal 1.0

neighbor 2.0 bin

timestep 1.0

fix DRUDE all drude 1 0 0 2

velocity ATOMS create ${TK} 12345
velocity ATOMS create 300 12345
velocity DRUDES create ${TDK} 12345
velocity DRUDES create 1 12345

delete_bonds ATOMS multi
PPPM initialization ...
  G vector (1/distance) = 0.217457
  grid = 10 10 10
  stencil order = 5
  estimated absolute RMS force accuracy = 0.197288
  estimated relative force accuracy = 0.000594128
  using double precision FFTs
  3d grid and FFT values/proc = 3375 1000
Rebuild special list taking Drude particles into account
Old max number of 1-2 to 1-4 neighbors: 4
New max number of 1-2 to 1-4 neighbors: 4 (+0)
Neighbor list info ...
  1 neighbor list requests
  update every 1 steps, delay 10 steps, check yes
  master list distance cutoff = 14
  2000 total bonds, 500 turned on, 1500 turned off
  500 total angles, 0 turned on, 500 turned off
  0 total dihedrals, 0 turned on, 0 turned off
  0 total impropers, 0 turned on, 0 turned off


fix TEMP all langevin/drude ${TK} 100. 1256 ${TDK} 20. 13977 zero yes
fix TEMP all langevin/drude 300 100. 1256 ${TDK} 20. 13977 zero yes
fix TEMP all langevin/drude 300 100. 1256 1 20. 13977 zero yes
fix NPH ATOMS rigid/nph/small molecule iso ${PBAR} ${PBAR} 500.
fix NPH ATOMS rigid/nph/small molecule iso 1 ${PBAR} 500.
fix NPH ATOMS rigid/nph/small molecule iso 1 1 500.
500 rigid bodies with 2000 atoms
  0.832099 = max distance from body owner to body atom
fix NVE DRUDES nve #nph iso

thermo_style custom step cpu etotal ke pe ebond eangle evdwl ecoul elong press vol temp f_TEMP[1] f_TEMP[2]
thermo 20

run 2000
PPPM initialization ...
  G vector (1/distance) = 0.217457
  grid = 10 10 10
  stencil order = 5
  estimated absolute RMS force accuracy = 0.197288
  estimated relative force accuracy = 0.000594128
  using double precision FFTs
  3d grid and FFT values/proc = 3375 1000
Rebuild special list taking Drude particles into account
Old max number of 1-2 to 1-4 neighbors: 4
New max number of 1-2 to 1-4 neighbors: 4 (+0)
Memory usage per processor = 24.8361 Mbytes
Step CPU TotEng KinEng PotEng E_bond E_angle E_vdwl E_coul E_long Press Volume Temp TEMP[1] TEMP[2] 
       0            0    4568.0415    903.41148      3664.63    623.46454            0    2890.2449    157955.66   -157804.74    244591.08        13824    202.18534    592.69144    16.200504 
      20     1.722235     2882.459    4527.8074   -1645.3484    561.72857            0    600.34616    155114.77   -157922.19    27167.702    14058.741    1013.3326    1443.4655    185.27401 
      40    3.3096511    1331.3826    3348.9313   -2017.5487    681.52309            0    553.09465    154668.62   -157920.79     17925.93    14484.215     749.4977    1115.3866    43.386797 
      60     4.992902    297.35979    2604.4137   -2307.0539    583.99971            0     409.0399    154634.74   -157934.83    13017.752    15026.564    582.87312    872.60475     22.24265 
      80    6.5607569   -374.31023    2263.3247    -2637.635    534.80338            0    212.27981    154543.18    -157927.9    6155.9261    15645.855    506.53672    761.30641    8.7126432 
     100    7.9872789   -905.58889    1911.7191    -2817.308    532.30405            0    87.570168    154497.48   -157934.66    2149.3099    16288.797    427.84666    643.66089    4.8069023 
     120    9.3763731   -1233.6894    1675.0881   -2908.7775     544.7643            0    59.500519    154422.72   -157935.76     233.4994    16915.818    374.88816    564.83964    3.2144788 
     140    10.629104   -1463.4927    1468.7443    -2932.237    539.69692            0    41.083584    154424.91   -157937.93   -1492.9865    17509.345    328.70799    496.20704    2.4372401 
     160    11.852306   -1695.7535    1385.9603   -3081.7137    552.91518            0    30.022893    154274.72   -157939.37   -3010.4983    18061.925    310.18075    467.01976    2.3094145 
     180    13.128343   -1818.1958     1253.169   -3071.3648    559.57456            0     20.01719    154289.67   -157940.63   -3354.4536    18564.877     280.4618    422.73989    1.8535213 
     200    14.361319   -1949.6497    1210.0669   -3159.7167      570.055            0    16.319449    154195.04   -157941.13   -4118.0013    19014.456    270.81546    408.39632    1.9983324 
     220    15.658812   -2031.6125    1148.1454   -3179.7579    598.02981            0    30.833041    154127.13   -157935.75   -4514.7299    19406.767     256.9573    387.52208    1.8813285 
     240    16.880403   -2118.6259    1120.0048   -3238.6307     613.2903            0    59.888138     154030.6   -157942.41   -4415.1944     19738.97    250.65937    377.40702    1.8497347 
     260    17.977666   -2203.4348    1065.8476   -3269.2823    614.19171            0    77.619746    153980.69   -157941.79   -4564.2677    20011.077    238.53887    358.32965    1.7081269 
     280    19.062712   -2317.9282    1033.2676   -3351.1958    650.51218            0    126.14976    153811.64   -157939.49   -4722.7543    20224.149    231.24742     347.0389    1.8510899 
     300    20.147121   -2377.6306     992.4842   -3370.1148    688.02217            0    179.77994    153701.18    -157939.1   -4126.4983    20378.439       222.12    336.10722    1.9370145 
     320    21.230714   -2419.6547    1023.0345   -3442.6892    720.31567            0    227.70007    153549.33   -157940.04   -4083.8776    20479.241    228.95722    344.07818    2.0439115 
     340    22.309826   -2456.7661      1048.83   -3505.5961    754.13021            0    264.44865    153415.74   -157939.91   -3894.7125    20529.721    234.73031    353.61159    1.9393326 
     360    23.468741   -2504.7475    1041.9912   -3546.7386    785.42547            0    335.38743    153271.47   -157939.03   -3464.4465    20531.323    233.19976    350.97241    2.0232616 
     380    24.540979   -2596.2223     1000.109   -3596.3313    825.31479            0    390.18238    153129.56   -157941.39   -3355.5804    20490.646    223.82645    338.36822    2.0539153 
     400    25.617981   -2666.6702     1006.474   -3673.1442     865.9858            0    422.51674    152978.57   -157940.21   -3329.4637    20411.001    225.25095    338.97873    1.9568826 
     420    26.701609   -2675.8885    1036.9567   -3712.8452    909.14044            0    490.71452    152826.18   -157938.88   -2907.7096    20294.317    232.07303    349.58715     2.154295 
     440    27.790984   -2731.5399    1054.4488   -3785.9886    935.99349            0     530.9675    152684.75    -157937.7    -2566.587    20147.094     235.9878    353.63668    2.0009429 
     460    28.883681   -2808.5929    996.20283   -3804.7957     986.6991            0    582.25374    152565.95    -157939.7   -2489.2912    19973.682    222.95224    335.98872    2.0623541 
     480    29.988908     -2862.64    1012.7035   -3875.3436    1005.1596            0    610.07691    152450.62    -157941.2   -2031.6453    19777.635    226.64513    340.83862    2.0584705 
     500    31.108508   -2935.4679    989.23412    -3924.702    1019.9115            0    633.87354     152362.4   -157940.89   -2214.2821    19561.863    221.39263    333.57378     1.956522 
     520     32.23957   -2989.4684    968.83888   -3958.3072    1057.5825            0    655.88302    152269.68   -157941.45    -2298.887    19328.548    216.82813    325.96219    1.9011871 
     540    33.468956   -3036.6833    1016.2589   -4052.9421    1091.2498            0    658.37327     152140.1   -157942.67    -2240.561    19080.875    227.44082    343.99554    1.9224489 
     560    34.622723   -3093.7794     947.7515   -4041.5309    1141.2318            0     764.1603    151995.79   -157942.71   -1157.5191    18819.961    212.10873    319.36622    2.1482229 
     580    35.788516   -3166.4133     987.9563   -4154.3696    1199.2171            0    796.34125    151794.12   -157944.05   -1304.4967    18555.635    221.10665    331.79736    2.0677284 
     600    36.974384   -3194.8572    979.66264   -4174.5199    1206.8265            0    842.68836    151717.96   -157941.99   -843.16439    18290.222    219.25051    329.73091    2.0704424 
     620     38.18258   -3255.2052    965.87596   -4221.0812    1218.8406            0    849.13897    151653.64    -157942.7    -628.0114    18027.862    216.16502    326.27112    2.1549061 
     640    39.403981   -3269.6729    1003.1309   -4272.8038    1273.0417            0    928.68865    151468.54   -157943.07    117.71698    17770.578    224.50275    337.70585    2.2357785 
     660    40.631142   -3293.6967    1002.4504   -4296.1471    1299.7531            0    955.60765    151392.37   -157943.87    207.76414    17523.763    224.35045    336.48708    2.2090521 
     680    41.875269    -3310.539    1011.7934   -4322.3324    1358.9202            0    986.69345    151275.62   -157943.56    677.05046    17289.864    226.44145    343.97562    2.1826048 
     700    43.134427   -3380.6882     976.5597   -4357.2479    1378.7945            0    1003.8845    151205.15   -157945.07    605.30766    17069.732    218.55607    328.79166    2.1874905 
     720    44.415732   -3385.7377    1005.1302   -4390.8679    1389.9512            0    1012.3035    151151.06   -157944.19    817.35931    16863.381    224.95021     337.6846    1.9923596 
     740    45.703748   -3378.6942    1023.8252   -4402.5194    1400.0688            0    1063.4211    151077.64   -157943.65    1513.5741    16671.518    229.13418    343.97242    2.2239086 
     760    47.020418   -3425.4378    1036.4011   -4461.8389    1408.8321            0    1068.7339    151003.75   -157943.15    1350.0894    16496.502     231.9487    350.71653    2.2508717 
     780    48.338153   -3453.9533    1021.8895   -4475.8428    1425.2091            0    1104.5857    150938.44   -157944.08    1801.2205    16339.019    228.70097    344.23769    2.2014946 
     800    49.665093   -3497.6136    979.31494   -4476.9285    1441.1399            0    1119.8292    150908.27   -157946.17    1649.8638    16200.982    219.17269    330.20541    2.3438395 
     820    51.002155   -3545.7792    969.50276    -4515.282    1479.3831            0    1103.1191    150847.98   -157945.76    1410.2174    16081.771    216.97671    326.71896    2.3257334 
     840    52.348585   -3562.4777    972.83071   -4535.3084    1470.5582            0    1079.9217    150857.46   -157943.25    1608.0813    15977.891    217.72151    330.27592     2.273003 
     860    53.702301   -3569.1307     987.8631   -4556.9938    1446.8392            0    1055.8137    150885.62   -157945.27    1110.2002    15887.947    221.08579     333.2891    2.2158828 
     880    55.074774   -3612.6783    957.13055   -4569.8088    1435.3619            0     1056.264    150883.35   -157944.78    914.27883    15809.361    214.20778     320.7282    2.3143391 
     900    56.447991    -3660.821    939.51428   -4600.3353    1463.6114            0     1070.121    150812.25   -157946.31    1261.3306    15740.285    210.26522    318.12453    2.1624803 
     920    57.824073   -3685.0371    941.21956   -4626.2567    1483.8487            0    1096.8187    150737.38   -157944.31    1236.4144    15680.989    210.64687    317.07978    2.1402358 
     940    59.206134   -3719.0907    915.61639   -4634.7071    1515.6474            0    1104.1119    150691.39   -157945.86    1066.5855    15632.292    204.91683      307.835    2.1967165 
     960    60.589268   -3752.7758    893.54303   -4646.3189    1517.1996            0    1125.6182    150656.81   -157945.94    1449.4275    15593.029    199.97676    301.19914    2.3309624 
     980    61.876364   -3752.1139    925.61635   -4677.7302    1528.3468            0    1137.3575    150600.83   -157944.27    1493.1803    15564.263    207.15484    310.02401    2.2911881 
    1000    63.271287   -3737.7642    905.82477    -4643.589     1505.254            0    1110.1192    150686.75   -157945.72    1296.1084    15546.258    202.72544    302.93556    2.0929108 
    1020    64.622759   -3767.2178    892.14155   -4659.3593    1493.2162            0    1085.8721    150707.12   -157945.57    922.80521    15537.177    199.66311    301.18533    2.3263957 
    1040    65.941662   -3783.5702    891.57404   -4675.1442    1484.1631            0    1076.2171    150710.25   -157945.77    707.15481    15535.102     199.5361    300.12594    2.1251454 
    1060     67.19177   -3816.1219    868.55884   -4684.6807    1478.7568            0    1060.3026     150723.2   -157946.94    638.16846    15538.641    194.38525    292.81651    2.0740369 
    1080     68.53579   -3807.3485    875.34276   -4682.6913    1482.2148            0    1055.6143    150725.66   -157946.19    416.14661    15546.427    195.90351    295.62261    2.0324778 
    1100    69.879683   -3814.5517    894.42504   -4708.9768    1492.6318            0    1053.4891    150692.22   -157947.31    341.55654    15557.253    200.17416    301.05648    2.0904434 
    1120    71.229336     -3837.42    886.31149   -4723.7315    1497.9422            0    1047.1133    150677.33   -157946.12    4.9308474    15569.465    198.35833    299.09038    2.0319263 
    1140    72.575681   -3802.3965    899.40687   -4701.8034    1479.6329            0    1020.1254    150744.44      -157946   -142.99064    15582.446     201.2891     303.4188    2.1267476 
    1160    73.920141   -3810.7658    902.84695   -4713.6127    1472.5916            0    1018.8174     150740.5   -157945.52    12.783208    15594.928      202.059    303.43853    2.1890399 
    1180    75.263571   -3786.4338    929.44447   -4715.8783    1477.4053            0    1016.2942    150735.81   -157945.39    -53.70556    15606.416    208.01158    313.15974    2.1754584 
    1200    76.617444   -3800.0338    897.43664   -4697.4705    1483.1401            0      1059.31    150706.14   -157946.06    534.37576    15617.028    200.84816    300.86611    2.1864749 
    1220    77.870257   -3799.6824    882.65153   -4682.3339    1488.5302            0    1036.1696    150739.15   -157946.19    155.57627    15628.242    197.53922    298.99878    2.1595968 
    1240    79.213242   -3800.7533    911.18613   -4711.9394    1475.5968            0    1005.3229    150752.61   -157945.47   -457.64009    15638.953    203.92533    307.85524    2.2971696 
    1260    80.557663   -3763.5149    950.12041   -4713.6353    1441.6787            0    964.69517     150825.9   -157945.91   -604.24646    15647.017     212.6389    318.24279    2.3098046 
    1280    81.906588    -3770.742    937.09634   -4707.8384    1445.4659            0    949.37244    150842.61   -157945.28   -993.94783    15650.702    209.72409    316.69806    2.2120299 
    1300     83.25737   -3777.4899    904.34062   -4681.8306    1435.5873            0    967.49755    150860.85   -157945.76   -640.04936    15648.293    202.39329    305.38558     2.133432 
    1320    84.604702   -3766.6204    885.81908   -4652.4395    1416.0678            0    971.89494    150906.86   -157947.27   -366.46049    15641.654    198.24813    298.22013    2.0691501 
    1340    85.950437   -3774.8032    919.58694   -4694.3901    1425.1776            0    939.16654    150887.07   -157945.81   -950.33698    15631.589    205.80544    310.45891    2.2651237 
    1360    87.308528   -3787.4243    922.65238   -4710.0767    1430.1028            0    964.01827    150842.71   -157946.91   -767.13405    15614.998     206.4915    311.39285    2.2865803 
    1380    88.663304    -3792.754    900.77391   -4693.5279    1420.8035            0    953.09514    150878.52   -157945.95   -1072.9667    15593.378    201.59505    303.86793     2.272854 
    1400    90.015342   -3772.1032    910.85489   -4682.9581    1401.9732            0    959.20659    150901.09   -157945.23   -640.48972    15566.828    203.85119    306.59495    2.1446633 
    1420    91.275025   -3782.5246    898.64718   -4681.1718    1436.1885            0    1010.9254    150817.16   -157945.45    -21.80524    15536.721    201.11908    302.43346    2.1315321 
    1440    92.638113   -3775.4206    919.73488   -4695.1554    1446.1057            0    1018.1835    150785.23   -157944.68    46.810177    15507.157    205.83855     308.7458    2.4365431 
    1460    93.998657   -3757.7457    938.91361   -4696.6593    1451.5945            0    1008.6517    150787.38   -157944.28   -175.88589    15478.297    210.13079    316.96257    2.3205626 
    1480    95.378927   -3776.8625     933.4271   -4710.2896    1469.7064            0    1033.8521    150731.34   -157945.19    171.44717    15450.004     208.9029    315.08104    2.1714503 
    1500    96.754308   -3764.5196    945.12068   -4709.6403    1483.0898            0    1052.3029    150699.59   -157944.62    431.18844    15423.716    211.51995    318.79339    2.1171407 
    1520    98.132369    -3760.514    960.29952   -4720.8136    1507.6965            0    1068.2902    150648.96   -157945.76    714.27148    15402.108      214.917    324.33523    2.3094291 
    1540    99.516103   -3787.9932    950.73472    -4738.728    1514.4781            0    1058.2368    150635.29   -157946.73    547.92963    15384.955    212.77638     320.2423     2.146327 
    1560    100.80054   -3822.5612    921.12091   -4743.6821    1519.8628            0    1084.8337     150596.5   -157944.88     479.4088    15370.571    206.14875    310.85457    2.2421836 
    1580    102.17868   -3832.4207    936.50822   -4768.9289    1562.5808            0    1124.0034    150490.87   -157946.38    833.06708    15360.019    209.59246    316.06272    2.3017406 
    1600    103.56739   -3862.3688    922.42346   -4784.7923    1571.2038            0    1110.9988     150479.2   -157946.19    674.29885    15354.399    206.44026    310.07174    2.1964479 
    1620    104.94902   -3863.8731    946.37539   -4810.2485    1562.9498            0     1094.323    150478.98    -157946.5   -224.35579    15352.811    211.80075    319.41591    2.1786496 
    1640    106.33456   -3834.5163    952.04367   -4786.5599    1536.5144            0    1078.6783    150544.66   -157946.41   -30.565669    15352.152    213.06933    320.41948    2.2390162 
    1660    107.70789    -3859.131    892.31028   -4751.4413    1515.0462            0    1076.4059    150603.91   -157946.81    227.01045    15352.058    199.70087    300.01229    2.0816603 
    1680    108.98662   -3858.2995     918.6578   -4776.9573    1533.9319            0    1064.9106    150570.69   -157946.49    335.15388    15352.595     205.5975     308.9351    2.1865737 
    1700    110.36828   -3850.0817    929.25672   -4779.3384    1552.5519            0    1094.2161    150519.21   -157945.31    393.76719    15353.331    207.96956    314.31078    2.2503629 
    1720    111.75258    -3890.603    917.87519   -4808.4781    1566.3302            0    1075.6092    150495.91   -157946.33   -76.371955    15355.997    205.42235    309.93925    2.2957028 
    1740    113.03476   -3891.5259    936.37478   -4827.9007    1568.2195            0    1085.8514    150464.14   -157946.11    0.9297943     15358.36     209.5626     316.6848     2.316952 
    1760    114.41776   -3881.0244    903.38798   -4784.4124    1524.2547            0    1079.0557    150557.47   -157945.19    192.41461    15360.098    202.18008    305.37757    2.2479728 
    1780    115.80219   -3885.7248    910.74799   -4796.4728    1532.8732            0    1055.4583    150560.36   -157945.17   -530.84683    15362.305    203.82727    307.22645    2.1586314 
    1800    117.17961   -3907.0506    885.50025   -4792.5508    1533.7624            0    1068.2841    150550.77   -157945.37    240.13827    15362.751    198.17677    297.61193    2.2008691 
    1820    118.56753   -3898.1244    894.18625   -4792.3107     1521.378            0    1059.1428    150574.05   -157946.88    34.574046    15361.495    200.12072    302.01361    2.2564021 
    1840    119.94595   -3874.3766    895.94028   -4770.3169    1523.7865            0    1077.7882    150573.72   -157945.61    324.16201    15359.092    200.51327    301.16388    2.2849553 
    1860    121.23674   -3892.2617    891.17198   -4783.4337    1526.1544            0    1091.1167    150543.11   -157943.82    574.32363    15357.261    199.44612    299.94124    2.3881771 
    1880    122.61774   -3906.8943    911.93286   -4818.8271    1552.4086            0    1113.1993    150462.35   -157946.79    279.12422     15356.96    204.09245    307.10891    2.3827982 
    1900    123.99695   -3922.7591    879.82965   -4802.5888    1550.6607            0    1108.3657    150485.77   -157947.38    356.47291    15359.386    196.90768    297.39117    2.2923139 
    1920     125.3786   -3960.2437    869.21003   -4829.4537    1521.5339            0    1036.9974     150558.9   -157946.89   -839.29936     15362.76    194.53099    292.24783    2.1123934 
    1940    126.76541    -3954.661    876.75754   -4831.4186    1506.7448            0    1007.0383    150601.14   -157946.34   -1316.6937    15361.338    196.22014    293.98355    2.1675902 
    1960    128.05886   -3938.7558    876.41976   -4815.1756    1481.7627            0    996.84388    150652.15   -157945.93   -887.63902    15352.095    196.14454    294.34752    2.1303454 
    1980    129.45386   -3911.4383    894.43818   -4805.8765    1516.4382            0     1037.517    150585.32   -157945.15   -176.75144    15336.185     200.1771    299.21945    2.1525374 
    2000    130.85377   -3920.2641    888.06919   -4808.3333    1495.9942            0     1040.703    150601.72   -157946.75   -243.72475    15316.676    198.75171    299.19915    2.2523594 
Loop time of 130.854 on 1 procs (1 MPI x 1 OpenMP) for 2000 steps with 2500 atoms

Pair  time (%) = 110.217 (84.2289)
Bond  time (%) = 0.0494027 (0.0377541)
Kspce time (%) = 3.81051 (2.91204)
Neigh time (%) = 9.54594 (7.29512)
Comm  time (%) = 0.772756 (0.590549)
Outpt time (%) = 0.00510979 (0.00390496)
Other time (%) = 6.45339 (4.93176)

Nlocal:    2500 ave 2500 max 2500 min
Histogram: 1 0 0 0 0 0 0 0 0 0
Nghost:    21780 ave 21780 max 21780 min
Histogram: 1 0 0 0 0 0 0 0 0 0
Neighs:    2.34087e+06 ave 2.34087e+06 max 2.34087e+06 min
Histogram: 1 0 0 0 0 0 0 0 0 0

Total # of neighbors = 2340869
Ave neighs/atom = 936.348
Ave special neighs/atom = 4
Neighbor list builds = 100
Dangerous builds = 6

