LAMMPS (30 Apr 2015)
units real
boundary p p p

atom_style drude
bond_style harmonic
angle_style harmonic
special_bonds lj/coul 0.0 0.0 0.5

pair_style lj/cut/coul/long 12.0 12.0
kspace_style pppm 1.0e-3

comm_modify vel yes
read_data data.swm4-ndp
  orthogonal box = (-12 -12 -12) to (12 12 12)
  1 by 1 by 1 MPI processor grid
  reading atoms ...
  2500 atoms
  scanning bonds ...
  1 = max bonds/atom
  scanning angles ...
  1 = max angles/atom
  reading bonds ...
  2000 bonds
  reading angles ...
  500 angles
  4 = max # of 1-2 neighbors
  3 = max # of 1-3 neighbors
  3 = max # of 1-4 neighbors
  4 = max # of special neighbors
Rebuild special list taking Drude particles into account
Old max number of 1-2 to 1-4 neighbors: 4
New max number of 1-2 to 1-4 neighbors: 4 (+0)

pair_coeff    1    1      0.210939     3.183950  # ODw ODw
pair_coeff    *   2*      0.000000     0.0

group ATOMS type 1:3
2000 atoms in group ATOMS
group CORES type 1
500 atoms in group CORES
group DRUDES type 4
500 atoms in group DRUDES

variable TK equal 300.0
variable TDK equal 1.0
variable PBAR equal 1.0

neighbor 2.0 bin

timestep 1.0

velocity ATOMS create ${TK} 12345
velocity ATOMS create 300 12345
velocity DRUDES create ${TDK} 12345
velocity DRUDES create 1 12345

delete_bonds ATOMS multi
PPPM initialization ...
  G vector (1/distance) = 0.217457
  grid = 10 10 10
  stencil order = 5
  estimated absolute RMS force accuracy = 0.197288
  estimated relative force accuracy = 0.000594128
  using double precision FFTs
  3d grid and FFT values/proc = 3375 1000
Neighbor list info ...
  1 neighbor list requests
  update every 1 steps, delay 10 steps, check yes
  master list distance cutoff = 14
  2000 total bonds, 500 turned on, 1500 turned off
  500 total angles, 0 turned on, 500 turned off
  0 total dihedrals, 0 turned on, 0 turned off
  0 total impropers, 0 turned on, 0 turned off


fix TEMP all langevin/drude ${TK} 100. 1256 ${TDK} 20. 13977 zero yes
fix TEMP all langevin/drude 300 100. 1256 ${TDK} 20. 13977 zero yes
fix TEMP all langevin/drude 300 100. 1256 1 20. 13977 zero yes
fix NPH ATOMS rigid/nph/small molecule iso ${PBAR} ${PBAR} 500.
fix NPH ATOMS rigid/nph/small molecule iso 1 ${PBAR} 500.
fix NPH ATOMS rigid/nph/small molecule iso 1 1 500.
500 rigid bodies with 2000 atoms
  0.832099 = max distance from body owner to body atom
fix NVE DRUDES nve #nph iso

thermo_style custom step cpu etotal ke pe ebond eangle evdwl ecoul elong press vol temp f_TEMP[1] f_TEMP[2]
thermo 20

run 2000
PPPM initialization ...
  G vector (1/distance) = 0.217457
  grid = 10 10 10
  stencil order = 5
  estimated absolute RMS force accuracy = 0.197288
  estimated relative force accuracy = 0.000594128
  using double precision FFTs
  3d grid and FFT values/proc = 3375 1000
Memory usage per processor = 24.8361 Mbytes
Step CPU TotEng KinEng PotEng E_bond E_angle E_vdwl E_coul E_long Press Volume Temp TEMP[1] TEMP[2] 
       0            0    4568.0415    903.41148      3664.63    623.46454            0    2890.2449    157955.66   -157804.74    370347.05        13824    202.18534    592.69144    16.200504 
      20     1.670435    2868.7128    4515.7418   -1647.0291    572.23922            0    588.50184    155114.75   -157922.52     26730.12    14092.816    1010.6323     1439.615    187.25307 
      40     3.294256    1313.1948     3339.366   -2026.1712    676.00612            0    523.59697    154694.89   -157920.66    17234.524    14551.068    747.35697     1111.966    44.004336 
      60     4.878108    276.59257    2578.4472   -2301.8547    573.30272            0    381.82369    154678.15   -157935.13    12451.213    15122.552    577.06178    863.85448    22.481147 
      80    6.4173019   -386.15638    2251.2594   -2637.4158    532.18796            0    187.78576    154572.11    -157929.5    5665.8522    15765.274    503.83649    756.53319    8.7320313 
     100    7.9038959   -916.96716    1881.7624   -2798.7296    523.51212            0    77.047038    154535.03   -157934.31    1951.6604     16424.66    421.14229    633.60545    4.7806793 
     120    9.3423159   -1231.9981    1655.2408    -2887.239    533.98365            0    43.068756    154473.29   -157937.58   -83.955781    17063.091    370.44629    558.66502    3.1501291 
     140    10.636915   -1455.0162    1503.1108    -2958.127    531.73862            0    29.279902    154422.07   -157941.21   -1905.3654    17664.386    336.39929    507.54343    2.3967042 
     160    11.989557   -1663.2719     1385.267   -3048.5389    552.46241            0    19.801111    154316.77   -157937.57   -2866.7933    18221.771    310.02561    467.23376    2.2943714 
     180    13.231691    -1813.444     1292.964   -3106.4079     575.4783            0     7.098399    154249.37   -157938.36   -3747.6409     18727.85    289.36799    437.42226    1.9759376 
     200    14.470196   -1952.7951    1212.5514   -3165.3465      582.786            0    3.5321863    154187.88   -157939.54   -4359.4632     19176.77    271.37148    407.98901    2.0677208 
     220     15.81973   -2070.4357    1089.2748   -3159.7105    570.18621            0    18.329573    154192.64   -157940.86   -4533.0387    19564.988    243.78193    367.18315    1.8905854 
     240    16.945913   -2151.1947    1069.5041   -3220.6988    588.16182            0    20.642675    154113.36   -157942.86   -4926.3801    19891.402    239.35721    359.21426     1.856069 
     260    18.147111   -2212.1929    1020.9574   -3233.1502    600.81904            0    52.402724    154053.41   -157939.78    -4748.899     20154.15    228.49236    342.42631    1.9338606 
     280    19.254553    -2265.978     1028.606    -3294.584    633.25865            0     148.3278    153862.97   -157939.14   -4255.7677    20355.621    230.20414    346.79218    1.7897235 
     300    20.347758   -2323.1758    970.41905   -3293.5948    661.42203            0    206.01513    153780.13   -157941.16   -3493.6792    20503.013    217.18178    327.92489    1.9219597 
     320     21.44065   -2363.7266     1030.738   -3394.4646    707.67907            0    235.31158     153605.3   -157942.75   -3953.8445    20602.857    230.68128    345.61707    1.9514518 
     340    22.529228   -2388.9515    1035.3094    -3424.261    730.97462            0    274.13683    153511.55   -157940.92    -3358.027    20655.329    231.70437    349.14122    1.9827943 
     360    23.612081   -2442.6839    1041.1762   -3483.8601    769.90001            0    308.30797    153379.22   -157941.28   -3542.2711      20662.8    233.01737    350.74268    2.0160146 
     380    24.786291   -2517.9295    1022.7535    -3540.683    805.65507            0    347.78681    153248.33   -157942.45   -3594.9021    20626.931    228.89432    345.45873     2.126023 
     400    25.968057   -2537.3139    1034.2014   -3571.5153    843.51956            0    430.19922    153096.36    -157941.6   -2939.3425    20550.464    231.45639     347.1485    1.9491804 
     420    27.060786   -2576.7112     1008.826   -3585.5372    881.64449            0    503.56727    152969.94   -157940.69    -2277.281    20441.315    225.77734    338.99305    2.0223197 
     440    28.163406   -2602.2033    1083.6365   -3685.8399    912.13538            0    523.95581    152820.68   -157942.61   -2404.6697    20306.851    242.52008    363.31793    2.0733973 
     460    29.281266   -2652.3649    1049.6755   -3702.0404    945.36526            0     593.1531    152701.75   -157942.31    -1824.129     20148.83    234.91952    354.26312     2.126849 
     480    30.409928   -2717.0903    1030.4348    -3747.525    942.29436            0     596.9173    152655.62   -157942.36   -1585.8543    19974.025    230.61342    346.63274    2.2016892 
     500    31.542309   -2772.7743    1072.4225   -3845.1968    1001.2552            0    618.52259    152477.04   -157942.02   -1886.7897     19783.27    240.01036     361.2207    2.0422171 
     520    32.685874   -2848.5768    1021.8032     -3870.38    1023.5426            0    636.91394    152411.48   -157942.32   -1993.9987    19575.819    228.68165    344.00209    2.0282552 
     540    33.831216   -2911.2769    998.51165   -3909.7885    1024.1628            0    662.03652    152346.34   -157942.33   -1350.7993    19354.262    223.46896    334.01292    1.9962943 
     560    34.997365   -2958.1797    1001.0626   -3959.2423    1031.7171            0    677.78931    152273.51   -157942.26   -1584.6315    19120.626    224.03987    337.76628    1.9657658 
     580    36.270783   -3006.4222    998.45862   -4004.8808     1108.203            0    717.96097    152110.38   -157941.42   -1364.5049    18877.416    223.45709    334.92562    1.9779322 
     600    37.473992   -3037.5504    970.02584   -4007.5762    1139.5155            0    820.70725     151974.6    -157942.4   -523.20645    18628.924    217.09377    327.77311    2.1005741 
     620    38.690331   -3092.6647    983.56692   -4076.2316    1159.0193            0     845.5726    151862.31   -157943.13   -253.88252     18384.72     220.1243    332.33341    2.0987922 
     640    39.810905   -3140.7865    1014.4741   -4155.2606    1189.5666            0    823.13247    151774.51   -157942.47   -1044.6418    18146.645    227.04138    342.98696    2.2419115 
     660    41.049068    -3175.507    985.75172   -4161.2587    1217.9082            0    856.16338    151709.16   -157944.49   -493.50533    17911.126    220.61326    331.60854    2.2247778 
     680     42.40078   -3231.0832    972.00966   -4203.0928    1264.3182            0    909.01633    151566.92   -157943.35    -83.44057    17681.021    217.53776    327.67771     2.078837 
     700    43.660115   -3258.1826    967.12349   -4225.3061    1237.3286            0    899.37324    151581.73   -157943.74   -99.475843    17458.483    216.44422    326.26946    2.1100423 
     720    44.942921   -3256.5651    1001.0468   -4257.6119    1268.1106            0    918.09817    151498.17   -157941.99      207.369    17244.778    224.03634    337.70233    2.0704309 
     740    46.245445   -3256.4158    982.45207   -4238.8679    1260.0242            0    949.84308    151495.44   -157944.17    896.39819    17042.138    219.87479    333.11973    2.1777834 
     760    47.564458   -3292.7334    1024.8797   -4317.6131    1295.0719            0     952.7612    151379.87   -157945.32    952.36738     16854.56    229.37019    345.38297    2.2061336 
     780    48.887559   -3322.5368    1027.9902    -4350.527    1321.2743            0    969.44906    151302.06   -157943.31    689.74101    16680.869    230.06631    345.78149    2.2193384 
     800      50.2344   -3361.1133    988.49681   -4349.6101    1351.7226            0    1008.3468    151234.29   -157943.97    927.94206    16520.367    221.22762    332.97384    2.0928223 
     820    51.594122   -3410.6937    984.16898   -4394.8627    1330.9712            0    974.07103    151240.86   -157940.77    453.71934    16374.322    220.25904    331.26104    2.2499594 
     840    52.964127   -3452.3814    941.15776   -4393.5392     1346.259            0    998.23108    151205.69   -157943.72    1234.5036    16239.195    210.63304    318.21615    2.2192651 
     860    54.339123   -3484.2654    988.53039   -4472.7958    1376.8409            0     1003.388     151090.3   -157943.33    755.47052    16115.651    221.23513    333.17687    2.2809315 
     880    55.623232   -3500.1219    968.43112    -4468.553    1375.8994            0    1032.5807    151067.22   -157944.26    1164.3588    16002.908    216.73687     325.6433    2.2153456 
     900    57.014027   -3563.7138    957.40306   -4521.1169    1408.9259            0    1074.9788    150940.47   -157945.49    1582.4589    15902.517    214.26877    320.42715    2.2217784 
     920    58.412388   -3594.6847    957.55577   -4552.2405    1413.7221            0    1057.9251     150919.8   -157943.69    1075.1438    15815.366    214.30295    321.72141    2.3495828 
     940    59.821428   -3622.4291    938.14985   -4560.5789    1416.5919            0    1040.9929    150927.13   -157945.29    842.74401    15738.842    209.95986    315.45944    2.2108947 
     960    61.234051   -3651.8462    940.07903   -4591.9252    1417.1527            0     1018.907    150917.59   -157945.57    800.72053    15670.326    210.39162    314.87293    2.0324141 
     980    62.662883   -3673.6429    916.56791   -4590.2108    1437.4932            0    1060.1564    150857.04    -157944.9    924.63822    15608.172    205.12978    308.00128    2.1607258 
    1000    64.089621    -3657.763    902.89749   -4560.6605    1437.4536            0    1104.8846     150841.5   -157944.49    2058.0428    15555.106    202.07031    303.80243    2.2137541 
    1020    65.463111   -3698.7461    936.01327   -4634.7594    1467.0352            0    1114.3701    150727.78   -157943.95    1467.2612    15515.045    209.48169    315.72592    2.2582233 
    1040    66.825341   -3683.7263    942.00847   -4625.7348    1493.6858            0    1112.6539    150712.39   -157944.46    1431.2515    15487.027    210.82343    317.75506    2.2221602 
    1060    68.187588   -3730.2008     925.3805   -4655.5813    1486.7974            0    1074.5383    150727.58   -157944.49    813.20387    15469.881    207.10206    310.77892    2.2843327 
    1080    69.551261    -3720.299    969.44696    -4689.746    1490.4494            0    1085.5545    150680.01   -157945.76    1085.8889    15460.826    216.96422     326.1336    2.2043027 
    1100    70.835294   -3742.1134     932.9273   -4675.0407    1449.9025            0    1050.3594    150770.54   -157945.84    598.44749    15458.276    208.79104    315.40672    2.2354475 
    1120    72.209205   -3738.3929    922.97691   -4661.3698    1445.5756            0    1017.3257    150821.89   -157946.16    222.39803    15460.201    206.56413    311.07354     2.191942 
    1140    73.584451   -3762.1577    926.02447   -4688.1822     1421.893            0    977.69302    150857.69   -157945.46   -551.29623    15463.388    207.24618    311.61209    2.2825273 
    1160    75.078077   -3764.2222    920.35915   -4684.5814    1427.5043            0    977.85525    150855.27   -157945.21    -274.2836    15464.939    205.97827    310.35124    2.2228575 
    1180    76.515088   -3776.8192    884.21208   -4661.0312    1444.6976            0    1034.5278    150804.38   -157944.64    545.45995    15465.511    197.88848    297.65512    2.2458421 
    1200    77.908636   -3798.3987    889.76604   -4688.1647    1487.4568            0    1042.0616     150729.2   -157946.89    340.39545    15468.768    199.13147    300.24101    2.2502506 
    1220    79.200911   -3817.4564     891.3237   -4708.7801    1490.0777            0    1045.6922     150701.5   -157946.05     79.56111    15473.567    199.48007    300.52923    2.4050964 
    1240    80.588189   -3848.1657     858.4335   -4706.5993    1494.1245            0    1031.3374    150714.14    -157946.2   -131.43713    15478.398    192.11918      290.481    2.4306951 
    1260    81.981993   -3853.9855    884.56657   -4738.5521    1465.2703            0    979.68487    150762.47   -157945.97   -1031.2639    15481.291    197.96781    299.36509    2.2533217 
    1280    83.370945   -3850.2859    906.62291   -4756.9088    1458.9524            0    930.91786    150799.57   -157946.35   -1442.6212      15478.4    202.90407    306.14887    2.1823564 
    1300    84.767914   -3871.2501    871.33685    -4742.587    1463.6378            0    969.54278    150772.12   -157947.89    -870.2745    15466.287    195.00698    293.40557     2.277763 
    1320    86.060128   -3840.4309    902.95203   -4743.3829    1477.4838            0    1013.5303    150712.61   -157947.01   -509.33341    15447.297    202.08252    303.14251    2.1634547 
    1340    87.455095   -3823.0507     897.4698   -4720.5205    1480.1101            0    1052.4894    150693.21   -157946.33    46.704393    15425.588    200.85558    303.08323    2.0250673 
    1360     88.86105   -3857.1755    947.89275   -4805.0682    1529.1172            0    1075.7713    150536.78   -157946.73   -245.39012    15404.415    212.14034    320.93938    2.1850546 
    1380    90.263251   -3842.0905    894.80174   -4736.8922    1517.9323            0    1111.3102    150578.69   -157944.83     557.7127    15384.621    200.25847    300.40627    2.1553592 
    1400    91.660988    -3860.231    884.24895     -4744.48    1496.4648            0    1082.8318    150621.94   -157945.72    441.32285    15370.107    197.89673    297.61278    2.0700201 
    1420    93.057365   -3865.4509    903.78695   -4769.2378    1502.7612            0    1052.8727    150621.84   -157946.71   -48.244082    15358.037    202.26938    304.38743    2.2673641 
    1440     94.35737   -3877.8068    891.39052   -4769.1973    1507.2323            0    1022.4311    150646.55   -157945.41   -424.08204    15345.943    199.49503    300.48125    2.2771061 
    1460    95.765285   -3873.9652    898.78036   -4772.7456    1504.9145            0    1024.3603    150643.51   -157945.53   -644.65373    15331.797    201.14889    301.43817    2.2045029 
    1480    97.180935   -3855.9748    894.36765   -4750.3424    1509.5196            0     1042.558    150643.95   -157946.37   -221.03413    15314.936    200.16132    300.83619    2.1585973 
    1500    98.594344   -3863.0155    929.35632   -4792.3719    1539.9646            0    1077.6418    150536.26   -157946.23    232.59086    15298.108    207.99185     312.4189    2.2583474 
    1520    100.00689   -3872.5731    884.83028   -4757.4033     1559.137            0    1101.1868    150528.84   -157946.56    969.82176    15284.003    198.02683    297.90788    2.2570726 
    1540    101.42084   -3866.1438    894.22628   -4760.3701    1540.1043            0    1089.1284    150557.41   -157947.01    320.00612    15274.537    200.12968    301.42463    2.2967327 
    1560    102.83284   -3882.6451    899.95461   -4782.5997     1540.052            0    1074.3627     150548.6   -157945.62    386.83206    15268.111    201.41169     302.7594    2.1822017 
    1580     104.2501   -3857.7173     916.4954   -4774.2127    1545.4575            0    1091.8534    150533.22   -157944.74    785.99349    15264.858    205.11355    310.60495    2.1884229 
    1600    105.66087   -3872.8072    939.69976    -4812.507    1559.3776            0    1086.4909    150488.14   -157946.51    186.70016    15266.036    210.30674    317.29755    2.2238663 
    1620     106.9757   -3892.6364    898.96675   -4791.6031    1517.2093            0    1081.0203    150557.43   -157947.26    170.17183     15270.38     201.1906    301.64943    2.2560031 
    1640    108.39427    -3887.315    896.17025   -4783.4852    1514.7534            0    1060.4552    150586.72   -157945.41   -25.943507    15276.773    200.56474    301.10512    2.2283189 
    1660    109.80192   -3898.7607    904.06914   -4802.8299    1528.4507            0     1064.671    150550.53   -157946.49    20.170509    15283.331    202.33253    304.77381     2.265051 
    1680    111.11718   -3902.2416    895.37993   -4797.6215     1557.588            0    1070.9896    150519.46   -157945.66   -181.75418    15289.563    200.38787    301.41883    2.1701514 
    1700    112.53406   -3877.7935     910.8473   -4788.6408    1542.0144            0    1081.0109    150534.38   -157946.04    134.68594    15295.032    203.84949    307.42517    2.3638142 
    1720    113.94642   -3881.2756    890.52051   -4771.7961    1550.6325            0    1070.9484    150552.22   -157945.59    171.05959    15300.116    199.30032     301.0464    2.0680159 
    1740     115.3658   -3915.6628    888.31239   -4803.9752    1573.3736            0    1063.0039    150505.66   -157946.01   -166.45539    15304.854    198.80614    299.96878    2.2523304 
    1760    116.79591   -3908.8049    891.61407   -4800.4189    1569.6732            0    1086.9963     150487.3   -157944.39    15.889816    15307.775    199.54506    300.20633    2.2622863 
    1780    118.12264   -3908.6107    902.38567   -4810.9964    1597.2466            0    1123.6893    150414.25   -157946.18    224.02476    15309.956    201.95576    303.11401    2.1719495 
    1800    119.53396   -3927.4407    890.70953   -4818.1502    1595.2823            0    1126.5548    150406.15   -157946.13   -43.464434    15314.483    199.34262    299.25296    2.2174873 
    1820    120.94712   -3916.6634    887.08794   -4803.7513    1594.6209            0    1131.1706    150416.84   -157946.38     498.9637    15320.992     198.5321    299.29727    2.2646135 
    1840    122.36348   -3931.2791    911.79942   -4843.0785    1571.8205            0    1094.3538    150437.82   -157947.07   -520.93797    15329.119    204.06258    307.68394    2.2418155 
    1860    123.66883   -3932.1522    930.06882    -4862.221    1608.2102            0    1109.6412    150366.04   -157946.11   -569.47354    15336.533    208.15131    314.41639    2.2499462 
    1880    125.07858   -3899.4601    907.54093    -4807.001    1585.9617            0    1113.5541    150440.36   -157946.87    318.60771    15343.039    203.10952    306.23577    2.3166006 
    1900    126.49859   -3887.3588    930.28882   -4817.6477    1546.9115            0    1051.2947    150531.12   -157946.98   -522.41102    15350.272    208.20055    313.50663     2.290697 
    1920    127.92006   -3925.8661    873.40678   -4799.2729    1519.6133            0    1021.9685    150606.11   -157946.96   -443.35484    15354.631    195.47023    292.71644    2.1378673 
    1940    129.32699   -3958.1448     881.4848   -4839.6296    1531.9058            0    992.93459    150581.19   -157945.66   -1204.4436    15354.046    197.27811    297.39942    2.3180192 
    1960    130.73721   -3958.1657    907.87103   -4866.0367    1548.9978            0    1016.2736    150514.46   -157945.76   -1159.4031    15344.227     203.1834    306.59997    2.1754584 
    1980    132.04829    -3960.814    894.38143   -4855.1955    1587.4299            0    1072.4589    150431.54   -157946.62    -722.5952    15326.521     200.1644    300.62167    2.2881415 
    2000    133.47332   -3939.1633    894.39577   -4833.5591    1578.5124            0    1118.9336    150414.79    -157945.8    424.09153    15305.256    200.16761    301.45115    2.1883652 
Loop time of 133.473 on 1 procs for 2000 steps with 2500 atoms

Pair  time (%) = 112.482 (84.2729)
Bond  time (%) = 0.0516968 (0.0387319)
Kspce time (%) = 3.4121 (2.55639)
Neigh time (%) = 9.96139 (7.46321)
Comm  time (%) = 0.822488 (0.616219)
Outpt time (%) = 0.0055449 (0.00415431)
Other time (%) = 6.73829 (5.04841)

Nlocal:    2500 ave 2500 max 2500 min
Histogram: 1 0 0 0 0 0 0 0 0 0
Nghost:    21847 ave 21847 max 21847 min
Histogram: 1 0 0 0 0 0 0 0 0 0
Neighs:    2.34155e+06 ave 2.34155e+06 max 2.34155e+06 min
Histogram: 1 0 0 0 0 0 0 0 0 0

Total # of neighbors = 2341550
Ave neighs/atom = 936.62
Ave special neighs/atom = 4
Neighbor list builds = 99
Dangerous builds = 6

