LAMMPS (30 Apr 2015)
units real
boundary p p p

atom_style drude
bond_style harmonic
angle_style harmonic
special_bonds lj/coul 0.0 0.0 0.5

pair_style lj/cut/coul/long 12.0 12.0
kspace_style pppm 1.0e-3

comm_modify vel yes
read_data data.swm4-ndp
  orthogonal box = (-12 -12 -12) to (12 12 12)
  1 by 2 by 2 MPI processor grid
  reading atoms ...
  2500 atoms
  scanning bonds ...
  1 = max bonds/atom
  scanning angles ...
  1 = max angles/atom
  reading bonds ...
  2000 bonds
  reading angles ...
  500 angles
  4 = max # of 1-2 neighbors
  3 = max # of 1-3 neighbors
  3 = max # of 1-4 neighbors
  4 = max # of special neighbors
Rebuild special list taking Drude particles into account
Old max number of 1-2 to 1-4 neighbors: 4
New max number of 1-2 to 1-4 neighbors: 4 (+0)

pair_coeff    1    1      0.210939     3.183950  # ODw ODw
pair_coeff    *   2*      0.000000     0.0

group ATOMS type 1:3
2000 atoms in group ATOMS
group CORES type 1
500 atoms in group CORES
group DRUDES type 4
500 atoms in group DRUDES

variable TK equal 300.0
variable TDK equal 1.0
variable PBAR equal 1.0

neighbor 2.0 bin

timestep 1.0

velocity ATOMS create ${TK} 12345
velocity ATOMS create 300 12345
velocity DRUDES create ${TDK} 12345
velocity DRUDES create 1 12345

delete_bonds ATOMS multi
PPPM initialization ...
  G vector (1/distance) = 0.217457
  grid = 10 10 10
  stencil order = 5
  estimated absolute RMS force accuracy = 0.197288
  estimated relative force accuracy = 0.000594128
  using double precision FFTs
  3d grid and FFT values/proc = 1500 300
Neighbor list info ...
  1 neighbor list requests
  update every 1 steps, delay 10 steps, check yes
  master list distance cutoff = 14
  2000 total bonds, 500 turned on, 1500 turned off
  500 total angles, 0 turned on, 500 turned off
  0 total dihedrals, 0 turned on, 0 turned off
  0 total impropers, 0 turned on, 0 turned off


fix TEMP all langevin/drude ${TK} 100. 1256 ${TDK} 20. 13977 zero yes
fix TEMP all langevin/drude 300 100. 1256 ${TDK} 20. 13977 zero yes
fix TEMP all langevin/drude 300 100. 1256 1 20. 13977 zero yes
fix NPH ATOMS rigid/nph/small molecule iso ${PBAR} ${PBAR} 500.
fix NPH ATOMS rigid/nph/small molecule iso 1 ${PBAR} 500.
fix NPH ATOMS rigid/nph/small molecule iso 1 1 500.
500 rigid bodies with 2000 atoms
  0.832099 = max distance from body owner to body atom
fix NVE DRUDES nve #nph iso

thermo_style custom step cpu etotal ke pe ebond eangle evdwl ecoul elong press vol temp f_TEMP[1] f_TEMP[2]
thermo 20

run 2000
PPPM initialization ...
  G vector (1/distance) = 0.217457
  grid = 10 10 10
  stencil order = 5
  estimated absolute RMS force accuracy = 0.197288
  estimated relative force accuracy = 0.000594128
  using double precision FFTs
  3d grid and FFT values/proc = 1500 300
Memory usage per processor = 15.0906 Mbytes
Step CPU TotEng KinEng PotEng E_bond E_angle E_vdwl E_coul E_long Press Volume Temp TEMP[1] TEMP[2] 
       0            0    4568.0415    903.41148      3664.63    623.46454            0    2890.2449    157955.66   -157804.74    361133.74        13824    202.18534    592.69144    16.200504 
      20   0.51304317    2977.9958    4638.9323   -1660.9365    582.36258            0    590.28791    155089.41   -157922.99    26846.085    14090.011    1038.2026    1479.3326    190.64131 
      40    1.0496812    1377.0253    3359.8101   -1982.7849    712.21406            0    581.14578    154638.97   -157915.12     18694.18     14547.34     751.9324    1115.2807    45.747418 
      60    1.5702031    299.77049     2702.545   -2402.7745    581.39812            0     393.0553    154555.25   -157932.48    11647.951    15124.061    604.83511    903.81892    23.795259 
      80     2.069381   -428.47368    2233.7444   -2662.2181    559.12254            0    225.66055     154488.4    -157935.4    6080.9102     15772.16    499.91658    751.43212     9.059551 
     100     2.539516   -936.05409    1829.1603   -2765.2144    536.85719            0    100.88007    154530.84   -157933.79    2043.0688    16438.813    409.36982    615.89037    4.8086159 
     120    2.9941812   -1259.2792    1665.2086   -2924.4878    520.06791            0   0.61255716    154493.42   -157938.59   -888.23498    17085.818     372.6771    562.10891    3.3319215 
     140    3.4045951   -1521.0431    1492.7759   -3013.8191    533.52652            0   -17.649073     154407.2    -157936.9   -2451.9969    17691.621    334.08632    502.60929    2.4716058 
     160    3.8314891   -1658.7878    1401.3988   -3060.1866    535.99571            0   -16.331911    154359.76   -157939.61   -3073.5891    18247.125    313.63592    471.52096     2.152103 
     180     4.212564   -1812.7819     1278.368     -3091.15    563.77153            0    12.612375    154270.72   -157938.25   -3322.8599    18748.846    286.10138     431.9268    2.2648748 
     200     4.610394   -1903.4473    1198.7672   -3102.2145    567.25439            0    44.105764    154224.91   -157938.48   -3481.4775    19196.805    268.28657    404.40548    2.0672905 
     220    4.9757011   -2029.7849    1177.2609   -3207.0459    608.98706            0    96.432514    154023.39   -157935.86   -3335.2106    19592.738    263.47341    395.59545     2.013749 
     240      5.32955   -2089.8581    1154.9461   -3244.8042    620.49814            0     126.4069    153945.42   -157937.12   -3539.9942     19936.47    258.47932    391.39887    1.9627552 
     260    5.7059951   -2160.4266    1117.9022   -3278.3288    644.85128            0    175.01212    153843.09   -157941.28   -3320.9959    20228.717    250.18881    375.71558     1.888593 
     280     6.057157   -2212.2808     1118.035   -3330.3158    688.08131            0    245.52764    153679.26   -157943.18   -3339.7658    20472.189    250.21852    376.78063    2.0156999 
     300     6.406316   -2243.8951    1087.1078   -3331.0029     732.6472            0    296.52805    153580.73   -157940.91   -2600.9623     20671.29    243.29696    363.89024    1.9846233 
     320    6.7564201   -2335.2867    1071.8402   -3407.1269    764.70503            0    346.56219    153421.39   -157939.78   -2853.6757    20831.581    239.88004    362.40812    1.9839016 
     340    7.1008081   -2405.1733     1040.101   -3445.2743    784.61547            0    365.98389    153344.76   -157940.64   -2912.4683    20953.369    232.77674    350.78286    1.8986344 
     360    7.4432321   -2489.1772    1011.9291   -3501.1063    791.98051            0    348.79696    153297.42    -157939.3   -3749.2058    21035.448    226.47182    339.90119    2.0035668 
     380     7.808445   -2522.6496    999.72559   -3522.3752     818.5229            0     396.8223    153202.46   -157940.18   -2957.5298    21073.927    223.74064    338.63939    2.0032446 
     400    8.1792321    -2507.573    1041.7986   -3549.3716    833.29933            0    424.58737    153132.57   -157939.82   -2954.5514    21072.949    233.15667    351.35791     2.034874 
     420    8.5515392    -2548.253    1016.3632   -3564.6162    840.26501            0    420.97456    153113.71   -157939.57   -2993.5945     21035.84    227.46417    342.05236    1.8424147 
     440    8.9247401   -2654.4308    999.66924   -3654.1001    855.09763            0    415.17967    153015.45   -157939.83   -3239.1248    20961.388    223.72803    337.73993    1.9180933 
     460     9.297112   -2707.6322    982.49042   -3690.1226    895.29526            0    459.92485     152897.4   -157942.74   -2803.4792     20847.03    219.88337    329.79627    1.9991983 
     480    9.6651602   -2747.8282    993.97796   -3741.8061    929.23978            0     532.4038    152737.79   -157941.24   -2648.1059    20697.208    222.45431    335.20342    1.9294469 
     500    10.017024   -2797.3557    999.53905   -3796.8947     997.7663            0    616.08872    152529.44   -157940.19   -2055.7609    20519.283    223.69889      336.136    1.9862349 
     520    10.370699   -2854.9263    987.13965   -3842.0659    1031.6785            0    661.81981    152406.58   -157942.14   -1852.5785    20320.907    220.92388    331.92271    1.9319305 
     540    10.731446   -2883.9542    1009.9243   -3893.8785    1052.9748            0    716.51028    152277.64   -157941.01   -1209.5105    20107.129    226.02313    340.66881    2.0476585 
     560    11.097552   -2936.3557    1015.1424   -3951.4981    1076.8787            0    757.35447    152157.24   -157942.98   -1221.3244     19883.55    227.19095    342.86266    2.0335681 
     580    11.472491   -2980.4217    980.10591   -3960.5276    1084.2587            0    785.25874    152111.81   -157941.86   -508.84599    19654.498    219.34972    330.38079    2.0888135 
     600    11.852667   -3047.7222    974.58176   -4022.3039    1131.2184            0    804.41514       151984   -157941.93    -828.7345     19424.45     218.1134    328.68401    2.2661111 
     620    12.235159   -3066.8982    986.76967   -4053.6678    1154.0154            0    852.18586    151877.93   -157937.79   -429.65898    19193.766    220.84108     332.0372    2.1321424 
     640    12.625469    -3085.196     976.3901   -4061.5861       1168.2            0     878.0157    151830.92   -157938.72    134.73453    18967.615    218.51811    330.73039    2.2344894 
     660    13.019807    -3137.115    1004.6141   -4141.7291    1192.1239            0    881.52658    151725.98   -157941.36    -142.5834    18748.808    224.83469     341.2331    2.2623665 
     680    13.417905   -3190.5146    952.08849   -4142.6031    1220.1496            0     926.6765    151649.93   -157939.36    272.94788    18536.572    213.07936    320.20504    2.1159155 
     700    13.818588   -3219.1267    978.61125   -4197.7379    1256.3557            0    943.06284    151545.88   -157943.04    214.31695    18333.931    219.01521    327.92644    2.1643831 
     720    14.257266   -3239.1773    1003.0039   -4242.1813    1278.1373            0    965.88226    151454.94   -157941.14    154.35111    18140.843    224.47434    336.70318    2.1292676 
     740    14.670475   -3281.5219    992.34934   -4273.8713    1279.6311            0    949.05042    151440.56   -157943.11    196.15734    17957.074    222.08982    334.42989    2.1111317 
     760    15.090482   -3313.7923    1016.8088   -4330.6012    1298.5438            0    951.20803    151364.37   -157944.72    185.45973     17780.77    227.56391    342.93358    2.1554468 
     780    15.517855   -3381.7944    991.73621   -4373.5306    1340.4922            0    976.91554    151253.65   -157944.59   -112.05762    17610.362     221.9526    334.46382    2.2904248 
     800    15.948075   -3396.4108    1002.0229   -4398.4337    1358.8416            0    1013.8251    151172.18   -157943.28    539.77286    17445.871    224.25478    338.37259    2.1291083 
     820    16.384151   -3444.1482     959.3729   -4403.5211      1381.28            0    1062.0357    151096.71   -157943.55    787.61152    17291.205    214.70962    321.66569    2.1358999 
     840    16.822084   -3484.6315    948.31888   -4432.9504    1386.5463            0    1044.2657    151080.42   -157944.18    592.73871    17147.683    212.23571    319.78064    2.0509842 
     860    17.266333   -3502.2765     928.0212   -4430.2977    1381.1627            0    1063.1014    151070.42   -157944.99     1055.734    17012.917    207.69305    312.98978    2.1308367 
     880    17.714199    -3513.511    929.24916   -4442.7601    1391.5049            0    1051.6599    151058.04   -157943.96    581.10286    16888.519    207.96787    311.31361     2.357901 
     900    18.171822   -3544.4389    953.34418   -4497.7831    1402.8314            0    1029.4261    151013.18   -157943.22    158.66701    16772.838    213.36038    320.58138    2.2339537 
     920    18.622047   -3523.6821    967.37372   -4491.0558    1402.4049            0    1056.5122    150993.06   -157943.04    799.03838    16664.354    216.50022    325.77589    2.1576774 
     940    19.073796   -3567.4888    944.62766   -4512.1165    1446.1023            0    1074.0106    150913.69   -157945.92    1202.5226    16565.409    211.40961    317.34503    2.2091143 
     960    19.530505   -3572.8506    939.91057   -4512.7611    1458.9622            0    1093.0101    150879.68   -157944.42     1214.889    16476.508    210.35391    316.65254    2.2020887 
     980    19.994693   -3596.6982    949.60775    -4546.306    1440.8157            0    1062.6537    150895.01   -157944.79    893.47855     16398.47    212.52416    319.22771    2.3207811 
    1000     20.45842   -3633.4714    906.02453    -4539.496    1447.4758            0    1065.1168    150892.86   -157944.95     942.6129    16329.984    202.77015    304.05352     2.247846 
    1020    20.916045    -3643.714    925.26119   -4568.9752    1468.4123            0    1077.3247    150830.51   -157945.23    980.92096    16269.749    207.07535    311.64658    2.2191243 
    1040    21.322339   -3647.8578     948.4116   -4596.2694    1496.7864            0    1123.4114    150727.14   -157943.61     1399.801    16217.853    212.25646    319.14742    2.2611059 
    1060     21.76271   -3666.5669     961.3048   -4627.8717    1525.5188            0    1163.7047    150627.57   -157944.67    1594.2593    16176.702    215.14199    324.76063    2.2355388 
    1080    22.200196   -3684.3837    949.48726   -4633.8709    1514.0694            0    1123.5148    150673.08   -157944.53    735.61105    16147.207     212.4972    319.05435    2.2439434 
    1100    22.639697   -3693.5205    927.65649    -4621.177    1490.4632            0    1093.4545    150739.78   -157944.88    789.86498     16125.78    207.61143    313.69739    2.0714322 
    1120     23.07915    -3712.236    958.46519   -4670.7012     1468.666            0    1031.9343    150773.75   -157945.05   -403.99021    16109.087    214.50648    323.56416    2.2587164 
    1140    23.524171   -3719.3508    931.18711   -4650.5379    1473.9322            0    1041.0419    150780.78   -157946.29   -83.869535    16091.387    208.40159    314.90148    2.4131637 
    1160    23.970096    -3720.757    942.30304     -4663.06    1495.3294            0     1079.633    150708.69   -157946.71    675.61172    16073.803    210.88936    316.33968    2.2024117 
    1180     24.40749   -3745.7764    929.04827   -4674.8246    1476.8264            0    1070.8477    150724.59   -157947.09    124.41843    16058.524    207.92291    312.51254    2.2568284 
    1200    24.853722   -3734.6753    963.15395   -4697.8293    1485.0391            0    1047.9776    150716.29   -157947.14    166.58563    16044.891    215.55583    324.65972     2.280366 
    1220    25.266919   -3762.0675    884.27907   -4646.3465     1466.302            0    1046.0075     150787.9   -157946.56    140.35541    16032.294    197.90347    298.94454    2.1959944 
    1240    25.707759    -3778.971    903.34663   -4682.3176    1487.2418            0    1078.9205    150697.26   -157945.74    462.16897    16021.234    202.17083    304.11216    2.2268599 
    1260    26.155365   -3787.9925    905.71824   -4693.7108     1498.404            0    1052.2288    150701.85   -157946.19    -195.4199    16012.028     202.7016     306.9324    2.1872812 
    1280    26.603724   -3794.0026    914.56211   -4708.5647    1507.1117            0     1045.499    150685.53    -157946.7   -413.63506    16001.684    204.68088    308.67362    2.3170437 
    1300    27.055152   -3839.8137    838.71693   -4678.5306    1508.5554            0    1079.9282    150679.77   -157946.78    119.23193    15989.599    187.70657    283.58457    2.1455253 
    1320    27.510618   -3862.9215    868.22305   -4731.1445    1531.2173            0     1126.306    150558.46   -157947.13    530.53117    15977.601     194.3101    292.75475    2.2461893 
    1340     27.96427   -3858.0645    871.57777   -4729.6423    1539.1928            0    1130.3924    150546.67    -157945.9    402.02428    15967.768    195.06089    295.45389    2.1425043 
    1360    28.384823   -3836.5699    914.07637   -4750.6462      1532.82            0     1087.853    150573.68   -157944.99   -446.58468    15960.618    204.57217    308.89778    2.1793291 
    1380    28.839619   -3854.3957    898.98463   -4753.3803    1523.6028            0    1092.3524    150575.13   -157944.47   -206.56174    15953.041     201.1946    302.77368    2.1789358 
    1400    29.293139   -3850.0964    847.04164   -4697.1381    1518.1301            0    1151.8076    150577.61   -157944.68    1202.3875    15945.629    189.56966     284.9268    1.8829738 
    1420    29.748853   -3852.3173    863.97618   -4716.2935    1518.0066            0    1116.3693    150595.93    -157946.6    393.17289    15943.928    193.35964      289.863    2.1669665 
    1440    30.203676   -3823.9009    898.66716    -4722.568    1465.6097            0    1052.7828     150704.3   -157945.26     251.9393    15945.022    201.12355    302.13894    2.2526945 
    1460    30.658245   -3831.7275    911.78226   -4743.5097    1463.1159            0    1006.4831    150732.27   -157945.37   -694.85601    15945.362    204.05874    306.73526    2.2936029 
    1480    31.076622   -3825.2074    909.61417   -4734.8216    1487.5007            0    1039.9072    150684.58   -157946.81   -589.86783    15940.957    203.57352    307.35669    2.2456682 
    1500     31.52911   -3828.9825     887.7304   -4716.7129    1517.8391            0    1095.8065    150614.85   -157945.21    124.03133    15933.974    198.67589    297.44168    2.0570716 
    1520    31.971646   -3853.1075    881.46988   -4734.5774    1485.2983            0     1059.332    150666.46   -157945.67   -71.983869    15928.522    197.27477    296.58959    2.2176232 
    1540    32.417819   -3855.8819    891.42094   -4747.3028    1507.9856            0    1038.4333    150651.43   -157945.15    -579.9574    15921.581    199.50184    301.84374    2.2194016 
    1560    32.859444   -3835.0345    911.92528   -4746.9598    1513.2746            0    1053.8385       150632   -157946.07    -626.3645    15910.349    204.09075     307.2681    2.2811633 
    1580    33.277972   -3819.3984    908.66524   -4728.0637    1520.1108            0    1073.4347    150625.98   -157947.59   -70.085427    15897.765    203.36115    305.04784     2.399549 
    1600    33.727685   -3831.8098     912.5371   -4744.3469    1511.7432            0    1042.0017    150645.35   -157943.44   -678.53876    15884.862    204.22768    306.83932    2.1621871 
    1620    34.173256   -3863.5775    893.23202   -4756.8095    1508.0064            0    1039.2844    150642.74   -157946.84   -298.69497    15868.913    199.90716    300.80549    2.2545614 
    1640    34.618609   -3876.7509     880.6882   -4757.4391    1501.6927            0    1015.0119    150672.45   -157946.59   -845.64905    15848.936    197.09983    295.32528    2.1663819 
    1660    35.065536   -3876.6625    877.41649    -4754.079    1525.4413            0    1064.3777    150602.17   -157946.06   -51.384041    15823.084    196.36761    296.35203    2.2608626 
    1680    35.512065   -3883.8321     872.9434   -4756.7755    1557.2202            0    1093.1389    150538.56   -157945.69     83.67908    15795.588    195.36652    293.46563    2.2313372 
    1700    35.931638   -3873.9672    866.28219   -4740.2494    1536.3009            0    1083.0579     150585.5   -157945.11    94.871591    15768.586    193.87573    291.91809    2.2265961 
    1720     36.38629   -3855.9431    913.74003   -4769.6832    1535.1207            0    1059.8395    150580.95   -157945.59   -666.49618     15742.32    204.49689    307.43174    2.2607515 
    1740    36.841695   -3883.7141    852.39532   -4736.1095    1508.4032            0    1062.7063    150637.65   -157944.87    98.415141    15714.703    190.76782    286.39457    2.1384789 
    1760    37.294717   -3874.4937    861.93327    -4736.427    1525.3406            0    1070.7259     150611.8   -157944.29    297.17219     15686.93    192.90244    288.98919    2.1558075 
    1780    37.748442   -3878.9573     882.4109   -4761.3682    1553.5669            0    1077.7235    150554.04    -157946.7   -69.049462     15659.33    197.48537     298.1668    2.2742861 
    1800     38.20952    -3846.066     888.3893   -4734.4553    1547.9469            0    1110.9089    150552.82   -157946.13    366.69257    15631.918    198.82335    297.74716    2.2356144 
    1820    38.637988   -3815.9742    928.30692   -4744.2811     1585.396            0    1142.8211    150473.53   -157946.03    731.85581     15607.64      207.757    313.04359    2.2144571 
    1840    39.094817   -3830.1929    898.35989   -4728.5528    1571.2168            0    1172.2628    150473.19   -157945.23     1414.602    15589.189    201.05479    301.87404    2.1102064 
    1860    39.554554   -3827.7113    911.77525   -4739.4865    1552.0581            0    1125.0761    150529.15   -157945.77    930.59019    15579.105    204.05717    306.90623    2.1839531 
    1880    40.014095   -3828.5869    916.58195   -4745.1688    1533.5681            0    1089.2775    150578.56   -157946.58    360.95131    15574.903    205.13292    309.00744    2.3390198 
    1900    40.473624   -3853.3684    893.23996   -4746.6083    1528.2178            0    1056.0968    150615.83   -157946.76    55.950467    15573.912    199.90894    299.91679     2.198848 
    1920    40.939183   -3836.5096     922.7435   -4759.2531    1523.1984            0    1029.1878    150634.35   -157945.99   -407.80833    15572.598    206.51189    310.55822    2.1950533 
    1940    41.397216   -3793.2369    942.37183   -4735.6088    1508.5561            0    1036.3355    150666.05   -157946.55    102.43666    15569.352    210.90475    317.99187    2.3274158 
    1960     41.83035   -3808.7507     890.0335   -4698.7842    1508.5056            0    1061.8387    150678.22   -157947.35   -63.548381    15566.199    199.19132    298.21437    2.1580389 
    1980    42.290659   -3851.4157    874.88464   -4726.3004    1515.3679            0    1054.9881    150650.56   -157947.21   -281.48484    15564.132    195.80098    294.90955    2.1829894 
    2000    42.751048   -3863.1523    926.59395   -4789.7463    1523.0216            0    1048.8725    150585.64   -157947.28   -691.02805    15561.676    207.37363    312.98418    2.2291133 
Loop time of 42.7512 on 4 procs for 2000 steps with 2500 atoms

Pair  time (%) = 30.9847 (72.4769)
Bond  time (%) = 0.0148535 (0.034744)
Kspce time (%) = 3.20275 (7.4916)
Neigh time (%) = 2.78833 (6.52224)
Comm  time (%) = 1.77924 (4.16185)
Outpt time (%) = 0.00641131 (0.0149968)
Other time (%) = 3.97484 (9.29763)

Nlocal:    625 ave 635 max 615 min
Histogram: 1 0 0 1 0 0 0 1 0 1
Nghost:    13291.2 ave 13368 max 13216 min
Histogram: 1 0 1 0 0 0 0 1 0 1
Neighs:    576939 ave 615601 max 533243 min
Histogram: 1 0 0 1 0 0 0 0 1 1

Total # of neighbors = 2307757
Ave neighs/atom = 923.103
Ave special neighs/atom = 4
Neighbor list builds = 101
Dangerous builds = 8

