LAMMPS (8 Jul 2015)
units real
boundary p p p

atom_style full
bond_style harmonic
angle_style harmonic
special_bonds lj/coul 0.0 0.0 0.5

pair_style lj/cut/coul/long 12.0 12.0
kspace_style pppm 1.0e-3

comm_modify vel yes
read_data data.swm4-ndp
  orthogonal box = (-12 -12 -12) to (12 12 12)
  1 by 2 by 2 MPI processor grid
  reading atoms ...
  2500 atoms
  scanning bonds ...
  1 = max bonds/atom
  scanning angles ...
  1 = max angles/atom
  reading bonds ...
  2000 bonds
  reading angles ...
  500 angles
  4 = max # of 1-2 neighbors
  3 = max # of 1-3 neighbors
  3 = max # of 1-4 neighbors
  4 = max # of special neighbors

pair_coeff    1    1      0.210939     3.183950  # ODw ODw
pair_coeff    *   2*      0.000000     0.0

group ATOMS type 1:3
2000 atoms in group ATOMS
group CORES type 1
500 atoms in group CORES
group DRUDES type 4
500 atoms in group DRUDES

variable TK equal 300.0
variable TDK equal 1.0
variable PBAR equal 1.0

neighbor 2.0 bin

timestep 1.0

fix DRUDE all drude Core NoPol NoPol Drude

velocity ATOMS create ${TK} 12345
velocity ATOMS create 300 12345
velocity DRUDES create ${TDK} 12345
velocity DRUDES create 1 12345

delete_bonds ATOMS multi
PPPM initialization ...
  G vector (1/distance) = 0.217457
  grid = 10 10 10
  stencil order = 5
  estimated absolute RMS force accuracy = 0.197288
  estimated relative force accuracy = 0.000594128
  using double precision FFTs
  3d grid and FFT values/proc = 1500 300
Rebuild special list taking Drude particles into account
Old max number of 1-2 to 1-4 neighbors: 4
New max number of 1-2 to 1-4 neighbors: 4 (+0)
Neighbor list info ...
  1 neighbor list requests
  update every 1 steps, delay 10 steps, check yes
  master list distance cutoff = 14
  2000 total bonds, 500 turned on, 1500 turned off
  500 total angles, 0 turned on, 500 turned off
  0 total dihedrals, 0 turned on, 0 turned off
  0 total impropers, 0 turned on, 0 turned off

fix TEMP all langevin/drude ${TK} 100. 1256 ${TDK} 20. 13977 zero yes
fix TEMP all langevin/drude 300 100. 1256 ${TDK} 20. 13977 zero yes
fix TEMP all langevin/drude 300 100. 1256 1 20. 13977 zero yes
fix NPH ATOMS rigid/nph/small molecule iso ${PBAR} ${PBAR} 500.
fix NPH ATOMS rigid/nph/small molecule iso 1 ${PBAR} 500.
fix NPH ATOMS rigid/nph/small molecule iso 1 1 500.
500 rigid bodies with 2000 atoms
  0.832099 = max distance from body owner to body atom
fix NVE DRUDES nve

thermo_style custom step cpu etotal ke pe ebond eangle evdwl ecoul elong press vol temp f_TEMP[1] f_TEMP[2]
thermo 20

run 2000
PPPM initialization ...
  G vector (1/distance) = 0.217457
  grid = 10 10 10
  stencil order = 5
  estimated absolute RMS force accuracy = 0.197288
  estimated relative force accuracy = 0.000594128
  using double precision FFTs
  3d grid and FFT values/proc = 1500 300
Rebuild special list taking Drude particles into account
Old max number of 1-2 to 1-4 neighbors: 4
New max number of 1-2 to 1-4 neighbors: 4 (+0)
Memory usage per processor = 15.0906 Mbytes
Step CPU TotEng KinEng PotEng E_bond E_angle E_vdwl E_coul E_long Press Volume Temp TEMP[1] TEMP[2] 
       0            0    4568.0415    903.41148      3664.63    623.46454            0    2890.2449    157955.66   -157804.74    244591.08        13824    202.18534    592.69144    16.200504 
      20   0.49781084    2915.1578    4579.5774   -1664.4195    561.91893            0    600.76451    155095.13   -157922.23     27379.77    14058.574    1024.9188    1461.4235    185.81763 
      40     1.018209    1320.1721    3337.6372   -2017.4651    726.83344            0     585.5439    154587.28   -157917.12    18749.425    14485.651    746.97006    1111.1967    42.968599 
      60     1.525435    284.06852    2671.4325   -2387.3639    575.54157            0     387.8792    154580.74   -157931.53    12104.741    15031.425    597.87207    894.03409     22.47754 
      80      2.00475   -462.53017     2214.284   -2676.8142    560.36347            0    254.65245    154447.22   -157939.05    6285.2465    15651.216    495.56131    744.43093    8.8127568 
     100     2.432236   -965.19662     1839.831   -2805.0276    544.59528            0    115.80812    154469.59   -157935.02    2361.9397     16295.72    411.75795    621.19912    4.9224853 
     120     2.846822   -1316.6351     1649.585   -2966.2202     554.6664            0    50.928925    154365.49    -157937.3   -493.85523    16925.293    369.18052    558.34987    3.1205721 
     140     3.221673   -1590.9162    1440.6669   -3031.5831    526.07679            0    -24.44055    154404.35   -157937.57   -2586.2431    17517.285    322.42421    486.69167     2.586531 
     160    3.6137359   -1742.3401    1326.8812   -3069.2213    539.49044            0   -43.846659     154369.1   -157933.96   -3549.2196    18059.707    296.95874    448.06792    2.3129691 
     180    3.9701629   -1895.1332    1224.1816   -3119.3148    555.27887            0   -18.261233    154275.94   -157932.27   -3762.2304    18545.518    273.97437     413.1282     2.095427 
     200     4.345273   -2004.4682    1176.8828    -3181.351     565.0443            0   0.21425471    154190.38   -157936.99   -4346.6036    18973.342    263.38879    395.88252    2.0082209 
     220     4.689502   -2094.1888    1098.3856   -3192.5744    592.45764            0     36.50238    154113.36   -157934.89   -4135.0794    19341.735    245.82095    370.09364    1.9070972 
     240     5.033802   -2178.9829    1086.8322   -3265.8151    617.63697            0    96.836936    153957.27   -157937.56   -4121.5262      19651.8    243.23528    366.04556    1.9924875 
     260    5.3747549   -2264.8265    1078.4348   -3343.2613    663.35817            0    167.76882    153763.13   -157937.52   -3799.3346    19907.052    241.35592    364.02207    1.8435482 
     280     5.714138   -2325.7764    1097.4356    -3423.212    717.74089            0     235.0127    153562.96   -157938.92   -3696.0526    20111.414    245.60833    368.58988    1.9380703 
     300    6.0521019   -2390.4932    1068.1054   -3458.5986    751.64681            0    295.31516    153435.34    -157940.9   -3512.2095    20268.754    239.04419    357.81253    1.9286155 
     320     6.390192   -2455.1776    1041.7419   -3496.9195     765.8972            0    331.14997       153345   -157938.97   -3020.0674    20383.474    233.14397    351.13757    2.0104501 
     340     6.727001   -2536.9935    1050.7304   -3587.7239    793.64536            0    352.69908    153205.74   -157939.81   -3447.9127    20457.612    235.15562    352.90057    1.9051156 
     360    7.0586419   -2603.5606    966.90943     -3570.47    819.14306            0    391.00909    153158.89   -157939.51    -3164.629    20490.764    216.39631    326.64547    1.9757601 
     380    7.3892438    -2594.787    1024.7927   -3619.5797    836.44816            0    434.32118    153047.12   -157937.47   -2902.9345    20485.923    229.35071    345.67414    2.0123845 
     400     7.716316   -2647.3896    982.46478   -3629.8543    864.59805            0    479.08516     152963.5   -157937.04   -2535.9236    20447.668    219.87764    331.07312    2.0714484 
     420    8.0467179   -2687.5263    1023.0437     -3710.57    928.04551            0    538.49845    152760.83   -157937.94   -2383.6292    20380.427    228.95928     345.4513     2.057099 
     440     8.389744   -2765.2192    999.28342   -3764.5026    966.26754            0    577.15359    152631.24   -157939.17   -2391.0923    20286.676    223.64168    337.30025    2.0089621 
     460    8.7349908   -2806.7385    1004.2311   -3810.9696    996.86893            0    599.41867    152532.79   -157940.05   -2476.5754    20168.782    224.74899    337.31632     2.029466 
     480      9.08199   -2830.2582    1013.6925   -3843.9506    1009.5553            0    624.64584    152464.58   -157942.73   -2210.7254    20027.747    226.86645    342.54472     2.134944 
     500    9.4354949   -2865.4993     1024.473   -3889.9723    1017.2606            0    658.56598    152375.13   -157940.93   -2047.5735    19865.992    229.27916    344.38913    2.0525248 
     520     9.795913   -2918.9299    973.10292   -3892.0328     1049.357            0    699.16951    152300.27   -157940.83   -1453.4121    19688.211    217.78243    327.60915    2.1372471 
     540    10.158881   -2970.1121    925.84385    -3895.956    1077.9578            0    758.25478    152208.67   -157940.84   -821.19447    19499.417    207.20575    312.49661    2.1408435 
     560    10.569308   -3008.9942    954.33133   -3963.3255    1114.7309            0    751.85274    152112.75   -157942.66   -1023.0801    19304.314    213.58131    320.99923    2.1094277 
     580    10.973728   -3069.9822    951.38041   -4021.3626    1127.8186            0    765.20411    152027.82    -157942.2   -954.30565    19101.694    212.92089    320.70578    2.2068738 
     600    11.382988   -3090.3867    973.25557   -4063.6423    1123.3487            0    744.86978    152009.46   -157941.32   -1226.2333    18891.444    217.81659    326.01851    2.1086961 
     620    11.797177   -3114.2347    1002.2136   -4116.4483    1159.4812            0    766.24573    151899.05   -157941.23   -1406.6638    18672.922    224.29746     337.8697    2.0713491 
     640    12.216724   -3160.3172    973.01388   -4133.3311    1181.5814            0    805.79135    151821.94   -157942.65   -1444.0821    18448.163     217.7625    329.42611    2.1114774 
     660    12.612676   -3185.1871    975.57462   -4160.7618    1177.1798            0    795.84414    151809.59   -157943.38   -962.08053    18220.064     218.3356    328.45099    2.0460981 
     680    13.015976   -3226.8034    977.21534   -4204.0187    1215.3088            0     862.3869    151662.05   -157943.76   -538.09214    17991.009     218.7028    329.39698    2.0955091 
     700    13.425077   -3267.0358    979.72611   -4246.7619    1229.2873            0    878.80049    151588.58   -157943.43    -526.4724    17765.058    219.26471    328.04825    2.1133396 
     720     13.83916   -3275.0063    987.91851   -4262.9248    1260.2342            0    905.19546    151515.01   -157943.36   -285.51035    17544.004    221.09819    332.66898    2.1518337 
     740    14.255374   -3298.9204      992.679   -4291.5994    1283.7665            0    917.78414    151449.24   -157942.39    351.98558    17329.448     222.1636    335.31032    2.0913047 
     760    14.673036   -3316.7113    1010.6458   -4327.3571    1296.6728            0     951.2091    151368.47   -157943.71    419.51796    17123.095    226.18459    339.00133    2.2434893 
     780     15.12014   -3294.5707    1053.9493     -4348.52     1300.722            0    975.60682    151317.15      -157942    1040.7668    16927.715    235.87602    355.06651    2.4139416 
     800    15.537285   -3363.0539    987.22337   -4350.2773    1325.1641            0     1013.664    151255.26   -157944.36    1462.6199      16747.7    220.94262     333.6248    2.1261709 
     820    15.959356   -3437.2117     980.5397   -4417.7514    1350.8684            0     1029.953    151144.46   -157943.03    817.95684    16584.026     219.4468     331.4353    2.1392264 
     840     16.38631   -3465.5868    981.23685   -4446.8236    1388.7125            0    1043.4314    151066.43    -157945.4    1366.0731    16434.707    219.60282    330.94926    2.2782032 
     860    16.817496   -3460.2301    1020.3681   -4480.5981    1418.4709            0    1090.9207    150954.21    -157944.2    1450.0443    16300.524    228.36046     343.7553    2.3032934 
     880     17.25378   -3499.5491    994.43799   -4493.9871    1444.4283            0     1113.276    150893.43   -157945.12    2227.6739    16183.439    222.55726    334.85721    2.2556813 
     900    17.693895   -3526.9176    952.87144    -4479.789    1443.8422            0    1118.5107    150902.72   -157944.87    2220.1643    16085.505    213.25458    321.43129     2.224535 
     920     18.13687   -3545.2479    976.95271   -4522.2006    1443.4309            0    1118.3924    150859.69   -157943.71    2107.6215    16006.466    218.64402    329.59228    2.2841452 
     940    18.583412   -3560.4406    994.62379   -4555.0644    1431.3624            0    1098.4902    150860.38    -157945.3    1495.9356     15944.46    222.59885    335.45596    2.3801438 
     960    19.030093    -3590.569    964.78915   -4555.3582    1431.9284            0    1092.1793    150866.87   -157946.34    1559.1687    15897.003    215.92179    322.96124    2.2656904 
     980    19.475395   -3599.6592    986.56344   -4586.2227    1435.7543            0    1034.8682    150889.35    -157946.2    679.01087    15862.242    220.79492     333.6153    2.2324889 
    1000    19.893842   -3634.9266    939.78172   -4574.7083    1424.4834            0     1022.664    150924.73   -157946.59    733.04572    15834.345    210.32508    316.00552     2.237368 
    1020    20.441177    -3669.298    934.76265   -4604.0606       1452.3            0    1016.3445    150873.46   -157946.16    143.60284    15811.749     209.2018    315.52335     2.361543 
    1040    20.903065   -3682.4175    935.86127   -4618.2788    1447.0344            0    1035.4526    150844.58   -157945.34    515.93558    15792.261    209.44767    316.51974    2.2557587 
    1060    21.364821   -3704.0833    901.03929   -4605.1226    1476.4857            0     1067.779    150794.42    -157943.8    1092.0636    15777.267    201.65444    304.95452    2.1323865 
    1080    21.827586   -3699.4923    921.66268    -4621.155    1475.7351            0    1079.7576     150767.2   -157943.85    1003.4205    15769.569       206.27    309.89605    2.1481095 
    1100    22.275732   -3667.6761    957.47147   -4625.1476    1507.2355            0    1102.9252    150708.15   -157943.46    927.20789    15768.898    214.28408    320.74377    2.2782404 
    1120    22.680444   -3668.1399    935.38917   -4603.5291    1507.3367            0    1080.9826     150753.9   -157945.75    810.87137    15775.175    209.34202    315.59211    2.3211338 
    1140    23.112374   -3710.7149    937.22068   -4647.9356    1499.5413            0    1020.4759    150776.54   -157944.49   -138.27816    15786.277    209.75191    317.37472    2.4210646 
    1160    23.546734   -3711.7493    900.74897   -4612.4983    1430.3269            0    990.84122    150911.11   -157944.78    8.4592568    15798.538    201.58947    302.97801    2.1151317 
    1180    23.981848   -3729.7115    928.82825   -4658.5398    1435.7711            0    937.43508    150913.97   -157945.72   -905.33202    15809.125    207.87367    312.84921    2.1056277 
    1200    24.418439   -3738.2838    909.79315    -4648.077    1436.4199            0    938.10918     150922.8   -157945.41   -1112.9968    15812.511    203.61357    305.23488    2.1167649 
    1220    24.855782   -3757.8302    907.08742   -4664.9176    1424.1514            0    930.13653    150924.86   -157944.06   -1078.0621    15807.893    203.00803    306.40868    2.1023531 
    1240     25.26536   -3778.5355    905.88168   -4684.4171    1453.9568            0    959.37689    150846.21   -157943.96   -975.25032    15795.393    202.73818    305.79843    2.0339468 
    1260    25.703675   -3773.7584    879.94641   -4653.7048    1473.5812            0      1002.67    150815.41   -157945.36   -360.58922    15776.466    196.93381    296.67227    2.1677815 
    1280    26.146132   -3755.4956    904.13603   -4659.6316    1493.7103            0    1017.8327    150773.94   -157945.12   -256.88128    15755.525     202.3475    303.80688    2.1690722 
    1300     26.59004   -3754.9246    903.51795   -4658.4425    1498.1329            0    1006.1786    150782.15    -157944.9    -455.2258    15732.436    202.20917    305.70495    2.0597543 
    1320    27.034064   -3758.1232    913.25769   -4671.3808    1500.2049            0    1032.0703    150739.71   -157943.37   -251.62277    15706.775    204.38895    307.63639    2.2295596 
    1340    27.474567   -3784.7481    937.61449   -4722.3626    1505.7439            0    993.46365    150723.27   -157944.84    -853.9871     15680.38    209.84005    315.17436    2.1631568 
    1360    27.891412   -3808.7787    864.89279   -4673.6715    1475.0618            0    1009.2569    150785.65   -157943.64   -331.64382    15650.208    193.56478    290.33701    2.1225859 
    1380    28.335818   -3798.7281     892.2622   -4690.9903     1465.561            0    993.58051    150793.83   -157943.96   -567.64508    15617.156    199.69011    300.39012     2.108012 
    1400    28.783845   -3807.9228    893.51775   -4701.4406    1459.3875            0    1000.4434    150784.38   -157945.65   -456.80001    15580.856    199.97111    300.76824    2.1839271 
    1420    29.233073   -3818.6783    890.66153   -4709.3398    1515.8208            0    1064.6851    150655.36   -157945.21    450.86768     15542.76    199.33188    300.06407    2.2238405 
    1440    29.681797    -3822.016    910.79285   -4732.8089    1539.2325            0    1076.0339    150597.99   -157946.07    429.02044    15506.302    203.83731    306.87302    2.2959743 
    1460    30.132691   -3821.2117    931.47963   -4752.6914    1540.1582            0    1089.9477    150561.76   -157944.55    645.54716     15472.89    208.46705     313.6725    2.0569062 
    1480    30.588162    -3838.255    920.25737   -4758.5124    1546.6509            0    1107.4468    150533.86   -157946.47    556.76352    15443.298    205.95549    309.34191    2.1915964 
    1500    31.016334   -3839.4323    942.18813   -4781.6204    1557.1836            0    1105.7209    150502.68   -157947.21    535.34633    15417.723    210.86364    315.63681    2.3074565 
    1520     31.47321    -3827.551    925.42642   -4752.9774    1555.4578            0     1097.174    150540.89    -157946.5    680.16246        15396    207.11233    311.38488    2.2973553 
    1540    31.930165   -3836.1802    885.40721   -4721.5874    1558.3851            0    1144.6478    150521.13   -157945.75    1216.5367    15378.972    198.15595     298.0512    2.2677127 
    1560    32.387461   -3830.4342    955.31807   -4785.7523    1574.0464            0    1105.7294    150481.06   -157946.59    169.17645    15369.126    213.80214    321.78063    2.2505223 
    1580    32.845958   -3808.4082    948.31996   -4756.7281    1556.8058            0    1079.1205     150552.4   -157945.06    603.87966    15363.124    212.23595     319.0938     2.213598 
    1600    33.305104   -3835.9681    925.63461   -4761.6027    1575.0508            0    1091.3896    150517.16    -157945.2    356.94873    15359.871    207.15893     312.2502    2.1323724 
    1620     33.73796   -3865.8357    866.45292   -4732.2886    1577.3357            0    1137.1716    150497.63   -157944.43    945.81112    15359.844    193.91394    292.15658    2.1341839 
    1640    34.191214   -3849.5025    884.49282   -4733.9954    1547.0606            0    1101.4292    150561.92   -157944.41    703.96326    15365.598    197.95131    297.51492    2.1382093 
    1660    34.642613   -3861.3162    906.62112   -4767.9373    1547.2773            0    1074.8986    150555.48    -157945.6    46.512723    15375.298    202.90367    305.93561    2.2852745 
    1680    35.105581   -3857.7679     907.8657   -4765.6336    1547.7327            0    1089.3299    150543.52   -157946.22    383.48079    15386.165    203.18221    305.99264    2.2997538 
    1700    35.565093   -3869.0902    891.82145   -4760.9117    1512.1728            0    1012.6239    150658.31   -157944.02   -488.95961    15397.869    199.59147    300.19799    2.1383293 
    1720     36.02734   -3870.4685    893.82411   -4764.2926    1485.7646            0    989.27762    150706.25   -157945.59   -542.70653    15406.338    200.03967    299.73769     2.404286 
    1740    36.491653   -3847.3408    893.93384   -4741.2746    1509.8117            0    1031.6641    150663.04   -157945.79    -307.1162    15410.521    200.06423    299.72639    2.3515431 
    1760     36.92171    -3840.438    868.84851   -4709.2865     1474.404            0     1018.599     150744.2   -157946.49   -276.44721    15412.838    194.45008    293.29646    2.1741902 
    1780    37.381137   -3842.0322    910.50606   -4752.5383    1494.2187            0    1002.3762    150696.05   -157945.18   -585.57252    15412.983    203.77313    306.96033    2.2101035 
    1800    37.838724   -3861.9431    881.98228   -4743.9254    1471.6721            0    978.01808    150752.55   -157946.17   -711.07254    15409.636    197.38944    297.29362    2.1923944 
    1820    38.293767   -3890.8613    856.10452   -4746.9658    1505.1405            0     991.9875    150701.72   -157945.82   -509.17282    15401.428    191.59795    288.37774     2.246651 
    1840    38.751219   -3860.2881    907.57785    -4767.866    1492.5264            0    999.80677    150685.45   -157945.65   -697.50098    15387.414    203.11779    307.54611    2.1518165 
    1860    39.208136   -3879.0681    938.58496    -4817.653    1532.9628            0    1046.6919    150550.41   -157947.72   -311.83188     15369.15    210.05724    315.53406    2.3242962 
    1880    39.666281   -3871.1182    925.64972   -4796.7679    1531.6363            0    1064.5321    150553.96    -157946.9     136.0161    15350.638    207.16231    310.65668    2.4238452 
    1900    40.126854   -3868.9005     949.1652   -4818.0657    1593.1686            0    1150.4095    150384.01   -157945.65    753.94006    15333.301    212.42512    320.80034    2.2786041 
    1920    40.586661   -3868.6343    954.03473    -4822.669    1610.5603            0    1192.2159    150320.88   -157946.33    1209.5547    15321.106    213.51493    322.25409    2.2500029 
    1940     41.01618   -3884.0548    926.13369   -4810.1885    1595.5448            0    1167.6153    150372.25    -157945.6    1289.8018    15318.433    207.27062    311.48406    2.2116198 
    1960    41.473956    -3889.403    953.52537   -4842.9284    1598.8799            0    1116.9498    150388.89   -157947.65    327.93587    15323.804    213.40093    321.26371     2.220227 
    1980    41.926384   -3911.0951    911.40927   -4822.5043    1553.4244            0    1085.4519    150485.64   -157947.02    169.14591    15332.113    203.97527     307.0305    2.1901167 
    2000    42.376579   -3892.0279    902.31728   -4794.3452    1534.2125            0     1088.703    150530.25   -157947.51    473.37009    15341.654    201.94046    304.04482    2.1954373 
Loop time of 42.3767 on 4 procs for 2000 steps with 2500 atoms

Pair  time (%) = 30.8431 (72.7831)
Bond  time (%) = 0.0151699 (0.0357977)
Kspce time (%) = 3.22418 (7.60838)
Neigh time (%) = 2.726 (6.43279)
Comm  time (%) = 1.61899 (3.82048)
Outpt time (%) = 0.00576353 (0.0136007)
Other time (%) = 3.94351 (9.30586)

Nlocal:    625 ave 641 max 600 min
Histogram: 1 0 0 0 0 0 0 2 0 1
Nghost:    13465.2 ave 13518 max 13362 min
Histogram: 1 0 0 0 0 0 1 0 0 2
Neighs:    585334 ave 608376 max 546210 min
Histogram: 1 0 0 0 0 0 1 0 1 1

Total # of neighbors = 2341334
Ave neighs/atom = 936.534
Ave special neighs/atom = 4
Neighbor list builds = 100
Dangerous builds = 7

