LAMMPS (6 Apr 2015)
WARNING: OMP_NUM_THREADS environment is not set. (../comm.cpp:89)
  using 1 OpenMP thread(s) per MPI task
# 250 butane system for drude polarizability example (Langevin)

units real
boundary p p p

atom_style drude
bond_style harmonic
angle_style harmonic
dihedral_style opls
special_bonds lj/coul 0.0 0.0 0.5

pair_style hybrid/overlay lj/cut/coul/long 8.0 8.0 thole 2.089 8.0
pair_modify mix geometric tail yes
kspace_style pppm 1.0e-4

read_data data.drude
  orthogonal box = (-19.1 -19.0999 -19.1) to (19.1 19.1 19.1)
  2 by 1 by 2 MPI processor grid
  reading atoms ...
  4500 atoms
  scanning bonds ...
  5 = max bonds/atom
  scanning angles ...
  6 = max angles/atom
  scanning dihedrals ...
  9 = max dihedrals/atom
  reading bonds ...
  4250 bonds
  reading angles ...
  6000 angles
  reading dihedrals ...
  6750 dihedrals
  5 = max # of 1-2 neighbors
  8 = max # of 1-3 neighbors
  12 = max # of 1-4 neighbors
  17 = max # of special neighbors
Rebuild special list taking Drude particles into account
Old max number of 1-2 to 1-4 neighbors: 17
New max number of 1-2 to 1-4 neighbors: 17 (+0)

comm_modify vel yes

group gBUTANE molecule 1:250
4500 atoms in group gBUTANE
group gCORES type 1 2 3
3500 atoms in group gCORES
group gDRUDES type 4 5
1000 atoms in group gDRUDES

pair_coeff    1    1 lj/cut/coul/long 0.065997 3.500000 # C3H C3H
pair_coeff    1    2 lj/cut/coul/long 0.065997 3.500000 # C3H C2H
pair_coeff    1    3 lj/cut/coul/long 0.044496 2.958040 # C3H H
pair_coeff    2    2 lj/cut/coul/long 0.065997 3.500000 # C2H C2H
pair_coeff    2    3 lj/cut/coul/long 0.044496 2.958040 # C2H H
pair_coeff    3    3 lj/cut/coul/long 0.029999 2.500000 # H H
pair_coeff    *  4*5 lj/cut/coul/long 0.000000 0.000000 # No lj for drudes
pair_coeff    1    * thole 1.368000
pair_coeff    2    * thole 1.368000
pair_coeff    4    * thole 1.368000
pair_coeff    5    * thole 1.368000

neighbor 2.0 bin

variable vTEMP   equal 260.0
variable vTEMP_D equal 1.0
variable vPRESS  equal 1.0

velocity gCORES  create ${vTEMP} 12345
velocity gCORES  create 260 12345
velocity gDRUDES create ${vTEMP_D} 12345
velocity gDRUDES create 1 12345

fix fSHAKE all shake 0.0001 20 0 b 2 4
  0 = # of size 2 clusters
  500 = # of size 3 clusters
  500 = # of size 4 clusters
  0 = # of frozen angles

compute cTEMP_DRUDE gDRUDES temp
compute cTEMP_DRUDE_DRUDE gDRUDES temp/drude
compute cTEMP_CORE gCORES temp/com

fix fLANG all langevin/drude ${vTEMP} 100.0 200611 ${vTEMP_D} 20.0 260514 zero yes
fix fLANG all langevin/drude 260 100.0 200611 ${vTEMP_D} 20.0 260514 zero yes
fix fLANG all langevin/drude 260 100.0 200611 1 20.0 260514 zero yes
fix fNPH all nph iso ${vPRESS} ${vPRESS} 500.0
fix fNPH all nph iso 1 ${vPRESS} 500.0
fix fNPH all nph iso 1 1 500.0

thermo_style custom step cpu etotal ke temp pe ebond eangle edihed eimp evdwl ecoul elong press vol c_cTEMP_DRUDE c_cTEMP_DRUDE_DRUDE c_cTEMP_CORE f_fLANG[1] f_fLANG[2] f_fLANG[3] f_fLANG[4] f_fLANG[5] f_fLANG[6]
thermo 50

timestep 0.5
run 2000
PPPM initialization ...
  G vector (1/distance) = 0.367867
  grid = 36 36 36
  stencil order = 5
  estimated absolute RMS force accuracy = 0.031354
  estimated relative force accuracy = 9.44215e-05
  using double precision FFTs
  3d grid and FFT values/proc = 26875 11664
Neighbor list info ...
  2 neighbor list requests
  update every 1 steps, delay 10 steps, check yes
  master list distance cutoff = 10
Memory usage per processor = 14.7792 Mbytes
Step CPU TotEng KinEng Temp PotEng E_bond E_angle E_dihed E_impro E_vdwl E_coul E_long Press Volume cTEMP_DR cTEMP_DR cTEMP_CO fLANG[1] fLANG[2] fLANG[3] fLANG[4] fLANG[5] fLANG[6] 
       0            0    6535.5187      2714.74    248.45112    3820.7787    3724.3278    140.75328    1.4735401            0   -518.77975    595169.42   -594696.41    -353319.1    55742.797            1    19.770966    341.28048    334.73928    18.435655         7997         3000    2659.7868    54.953184 
      50     1.512738    3410.4233    2035.8052    186.31549     1374.618    843.13622     810.0484    115.12605            0   -793.44532    595242.56   -594842.81    2136.7768    56274.002    157.12364    163.97555    197.25509    201.97939    154.10091         7997         3000    1604.8971    459.34553 
     100     2.899543    2842.4643    1934.7321    177.06534    907.73214    360.20844    919.19465    168.94709            0   -980.24353     595305.6   -594865.97    804.03865    57298.951    63.806654    53.686351    219.26545    227.53322     54.70252         7997         3000     1807.944    163.05782 
     150    4.2868619    2743.5832    1912.5249    175.03295     831.0583    241.48263    955.67445    184.10813            0   -974.39114    595292.65   -594868.47    2365.9188    58102.373    30.182826    15.370177    229.27739    238.39422    14.801906         7997         3000    1894.2438     44.12167 
     200    5.7597699    2790.1957    1878.7731    171.94402    911.42258    229.34513     1044.087    184.53684            0   -974.08936    595296.33   -594868.79     1636.033     58836.37    21.568064    5.4519855    228.21278    236.79553    5.3427045         7997         3000    1881.5408    15.925587 
     250     7.102618    2858.2381    1865.5542    170.73423    992.68383    225.44641    1154.2765    199.45892            0   -1013.7523    595295.84   -594868.58    174.01387    59489.253    18.786638     2.682994    227.42138    236.37458    2.6717124         7997         3000     1878.196    7.9638671 
     300    8.4194009    2913.9516    1945.0631    178.01083    968.88849    198.77947    1125.2327    195.32611            0   -977.99017    595296.17   -594868.62    1103.1407    59965.597    19.086127    1.8749569    237.32523    246.43948    1.8583623         7997         3000    1958.1701    5.5394251 
     350    9.7416599    2976.7058    1913.8237    175.15182    1062.8821    220.04572    1158.7555    201.35753            0   -943.29908    595294.51   -594868.48    1736.9459    60426.801    17.756172    1.5846324    234.01125    242.61803    1.5586831         7997         3000    1927.8055    4.6461383 
     400    11.048313    3062.8563    1992.0805    182.31383    1070.7758    228.10378    1182.7951    201.46137            0    -969.4413    595296.29   -594868.43    130.14638    60923.571    18.548544     1.544914     243.5976     252.5493    1.5116803         7997         3000    2006.7178    4.5060319 
     450    12.354526    3080.0976    1951.3494    178.58615    1128.7481    224.67313    1234.0429    205.93931            0    -964.0579    595296.25    -594868.1    486.68551    61276.391    17.788202    1.5356983    238.84328    248.04036    1.5114975         7997         3000    1970.8905    4.5054871 
     500    13.650775    3114.3223    1999.7074    183.01183     1114.615    218.59797    1205.3102    207.66928            0   -943.88512    595294.68   -594867.76    283.34837    61565.996    18.682978    1.5018884     244.5232    253.96926    1.4780171         7997         3000    2018.0006    4.4056884 
     550    15.117606    3170.1569     1955.663    178.98092    1214.4939    230.27808    1269.4605    220.76394            0   -933.78957    595295.44   -594867.66    736.92303    61875.587    18.522334    1.5293697    238.92902    248.23495    1.4943574         7997         3000    1972.4366    4.4543957 
     600    16.480029    3151.3712    1977.7773    181.00481    1173.5939    229.03271    1242.3247    214.44298            0   -940.70907    595296.02   -594867.52    85.852771     62131.01    17.658231    1.5675225    242.21743    250.68701    1.5204503         7997         3000    1991.9204    4.5321736 
     650    17.772857    3159.8479    1968.5664    180.16184    1191.2814    230.14235    1247.0714    212.34772            0   -926.00458    595295.03    -594867.3     1341.724    62306.869    18.643446    1.5069662    240.64532    249.66016    1.4774569         7997         3000    1983.7612    4.4040185 
     700    19.082195    3181.8115    1987.0445    181.85294     1194.767    237.86468    1240.6761    206.17573            0   -918.40202    595295.71   -594867.26   -151.23392    62500.053    18.700333    1.5813569    242.92977    251.90048    1.5280273         7997         3000    2001.5624    4.5547592 
     750    20.382231    3218.0464    2066.0947    189.08755    1151.9517    224.70596    1217.6492    195.90267            0   -916.45731    595297.78   -594867.63   -106.99711    62657.022    19.680538    1.6215612    252.47234    262.73397    1.5665722         7997         3000    2087.6437    4.6696541 
     800    21.660349     3148.505    1915.3314     175.2898    1233.1736    213.30832    1286.5048    207.25362            0   -903.41504    595296.78   -594867.26   -259.78327    62780.314    17.862736    1.5356891    234.24978    242.52506    1.5224557         7997         3000    1927.0668    4.5381513 
     850    22.956969    3215.4897    2014.7674    184.39012    1200.7223     217.4948    1255.8455    200.51577            0   -902.11572     595296.5   -594867.52   -175.74065    62920.234    18.774346     1.535778    246.45443    255.28362    1.5061967         7997         3000    2028.4443    4.4896863 
     900    24.247098    3255.7849    2041.9115    186.87433    1213.8734    235.78286    1231.1336    217.45079            0    -900.6809    595297.54   -594867.35   -592.88202    63068.099    18.519116    1.5542633    249.95844    259.05115    1.5226903         7997         3000    2058.3806    4.5388506 
     950    25.528939    3303.3904    1992.5878    182.36026    1310.8026    238.87265    1324.2456    208.60301            0   -891.21002     595297.6   -594867.31    86.094737    63179.433    18.905621     1.499873     243.5466    251.97553    1.5012242         7997         3000    2002.1588    4.4748641 
    1000    26.814854    3354.5805    2050.1364    187.62707     1304.444    234.42762    1307.9799    219.55677            0   -886.22173    595295.74   -594867.04   -135.40787    63290.733    18.760109    1.5962652    250.73374    260.30499    1.5882389         7997         3000    2068.3434    4.7342385 
    1050    28.101223    3327.0728    2077.8019    190.15899    1249.2709    240.38877    1267.0953    218.35797            0   -906.16928    595296.44   -594866.84    -750.7077    63410.562    18.597279    1.5865916    254.18402    263.39956    1.5848033         7997         3000    2092.9324    4.7239977 
    1100    29.371134    3319.4884    2050.8007    187.68786    1268.6878    249.90964    1270.0747    215.80829            0   -897.23096    595297.03   -594866.91    143.22962    63471.337    19.003567    1.5120538    250.71829    259.70399    1.5035303         7997         3000    2063.5679    4.4817381 
    1150    30.625768    3321.7854    2087.6519    191.06046    1234.1335    225.51768     1238.542    222.12076            0   -880.73136    595294.98    -594866.3   -266.12648     63524.45    18.712673    1.5082354    255.48859    264.57609    1.4660797         7997         3000    2102.2808     4.370105 
    1200    31.907978    3335.3036    2103.6753    192.52691    1231.6283    236.21683    1239.7842    217.50197            0   -891.64893    595296.37    -594866.6    259.78446    63580.343    20.066426    1.5556848    257.02619    266.00251    1.5249968         7997         3000     2113.615    4.5457259 
    1250    33.189064     3345.874    2117.0031    193.74666    1228.8709    234.64766    1232.5586    216.92434            0   -885.16205    595296.62   -594866.72   -274.39936    63614.768    20.158706    1.4445528    258.59719     268.2067    1.4331005         7997         3000    2131.1291    4.2718002 
    1300    34.550621    3318.6379     2059.697    188.50204    1258.9409    229.92981    1252.8631    225.43568            0   -878.57568    595295.85   -594866.56   -461.32806    63634.834    19.370862    1.5790465    251.74428    261.26231    1.5455628         7997         3000    2075.9501    4.6070291 
    1350    35.945091    3329.4379     2051.626    187.76339    1277.8119    226.92217    1281.8684    218.41468            0   -877.56363    595294.34   -594866.17    188.70832    63669.631    19.180836    1.5161372    250.92112    260.01961    1.4767615         7997         3000    2066.0758    4.4019455 
    1400    37.223575    3373.2886    2078.8724    190.25696    1294.4162    241.92732    1278.9185    221.65744            0   -877.37613    595295.66   -594866.38   -135.42197    63712.508    19.091301    1.5252264    254.31675    262.85481    1.5094817         7997         3000    2088.6038    4.4994781 
    1450    38.516212    3335.9934    2122.0489    194.20845    1213.9445    232.88186    1212.1778    221.72836            0   -881.28577    595294.75   -594866.31    195.43235    63747.225    19.364613    1.4880147    259.64473    269.40118    1.4702037         7997         3000    2140.6203     4.382398 
    1500     39.79549    3348.1432    2078.3403    190.20827    1269.8029    208.18411    1288.1665    217.78187            0   -872.65616    595294.76   -594866.43    592.64117    63813.079    19.403082    1.5430382    254.15549    263.42623    1.5014172         7997         3000    2093.1442    4.4754394 
    1550    41.056512    3302.4793    2082.3581    190.57597    1220.1212    221.78991     1230.824    210.52988            0   -873.80936    595297.51   -594866.72   -269.88268     63907.93    19.465527    1.5225348    254.67476    263.56671    1.5113767         7997         3000    2094.2605    4.5051269 
    1600    42.331172    3280.3334    2055.6803    188.13444    1224.6531    237.39406     1241.293    205.72022            0   -888.16535    595294.85   -594866.44    167.46716    64005.578    18.778259    1.5199497    251.63362    260.57096    1.5035949         7997         3000    2070.4567    4.4819309 
    1650    43.610863    3274.1439    2023.8007    185.21684    1250.3432    221.55954    1253.8902    224.50377            0   -878.07648    595294.49   -594866.03   -605.89788    64089.314    18.493961    1.4802163    247.73611    257.18154     1.461194         7997         3000    2043.5249    4.3555417 
    1700    44.894647    3309.5906     2044.243     187.0877    1265.3476    244.62607    1253.0135    220.19899            0   -881.07601    595295.09    -594866.5    326.29898     64155.21    19.246111    1.4579665    250.01642    259.85232    1.4391837         7997         3000    2064.7465    4.2899331 
    1750    46.175204    3306.3514    2061.7342    188.68849    1244.6172    246.81059    1241.3653    210.58985            0   -883.28489    595296.15   -594867.02    67.711489    64196.753    18.617969    1.4802502    252.46373    261.32601    1.4596535         7997         3000    2076.4563    4.3509498 
    1800    47.468712    3370.5236    2098.9761    192.09684    1271.5475    241.91359    1256.3265     213.3535            0   -868.69703    595295.48   -594866.83   -109.12821    64240.564    19.790885    1.5730447    256.73776    265.75187    1.5426033         7997         3000    2111.6235    4.5982074 
    1850    48.777698    3351.6026    2084.2473    190.74887    1267.3553    251.34483    1237.2607    222.62024            0   -872.54213    595295.03   -594866.36     183.3203    64297.311    19.212887    1.4867526    255.09074    264.21843    1.4571439         7997         3000     2099.439    4.3434692 
    1900    50.076209    3338.7325    2063.6409    188.86299    1275.0916    248.56834    1259.3421    219.77567            0    -880.5017    595294.31    -594866.4   -322.63382    64347.245      19.0663    1.5538324    252.52653    261.62027    1.5326725         7997         3000    2078.7944    4.5686057 
    1950    51.391013    3338.6348    2056.4064    188.20089    1282.2284    219.75304      1300.64    207.50059            0   -874.03219    595295.11   -594866.74    1175.0347    64364.353    18.187842    1.5082311    251.94239    260.52809    1.4956349         7997         3000     2070.116    4.4582034 
    2000    52.704615    3302.7658    2026.0949     185.4268    1276.6709    236.86607    1268.7235    210.31695            0   -867.73727    595294.78   -594866.28    278.33707    64411.262    18.322232    1.5549597    248.04673    257.45115    1.5149566         7997         3000    2045.6672    4.5157979 
Loop time of 52.7047 on 4 procs (4 MPI x 1 OpenMP) for 2000 steps with 4500 atoms

Pair  time (%) = 19.8537 (37.6697)
Bond  time (%) = 4.33624 (8.22742)
Kspce time (%) = 10.154 (19.2659)
Neigh time (%) = 0.387698 (0.735604)
Comm  time (%) = 0.651129 (1.23543)
Outpt time (%) = 0.00465536 (0.00883291)
Other time (%) = 17.3173 (32.8572)

Nlocal:    1125 ave 1239 max 968 min
Histogram: 1 0 0 0 0 0 2 0 0 1
Nghost:    5216.5 ave 5363 max 5113 min
Histogram: 1 0 0 2 0 0 0 0 0 1
Neighs:    194005 ave 219231 max 177570 min
Histogram: 1 1 0 0 1 0 0 0 0 1

Total # of neighbors = 776019
Ave neighs/atom = 172.449
Ave special neighs/atom = 13.3333
Neighbor list builds = 33
Dangerous builds = 0
