LAMMPS (6 Apr 2015)
WARNING: OMP_NUM_THREADS environment is not set. (../comm.cpp:89)
  using 1 OpenMP thread(s) per MPI task
# 250 butane system for drude polarizability example (Nose-Hoover)

units real
boundary p p p

atom_style drude
bond_style harmonic
angle_style harmonic
dihedral_style opls
special_bonds lj/coul 0.0 0.0 0.5

pair_style hybrid/overlay lj/cut/coul/long 8.0 8.0 thole 2.089 8.0
pair_modify mix geometric tail yes
kspace_style pppm 1.0e-4

read_data data.drude
  orthogonal box = (-19.1 -19.0999 -19.1) to (19.1 19.1 19.1)
  1 by 1 by 1 MPI processor grid
  reading atoms ...
  4500 atoms
  scanning bonds ...
  5 = max bonds/atom
  scanning angles ...
  6 = max angles/atom
  scanning dihedrals ...
  9 = max dihedrals/atom
  reading bonds ...
  4250 bonds
  reading angles ...
  6000 angles
  reading dihedrals ...
  6750 dihedrals
  5 = max # of 1-2 neighbors
  8 = max # of 1-3 neighbors
  12 = max # of 1-4 neighbors
  17 = max # of special neighbors
Rebuild special list taking Drude particles into account
Old max number of 1-2 to 1-4 neighbors: 17
New max number of 1-2 to 1-4 neighbors: 17 (+0)

group gBUTANE molecule 1:250
4500 atoms in group gBUTANE
group gCORES type 1 2 3
3500 atoms in group gCORES
group gDRUDES type 4 5
1000 atoms in group gDRUDES

pair_coeff    1    1 lj/cut/coul/long 0.065997 3.500000 # C3H C3H
pair_coeff    1    2 lj/cut/coul/long 0.065997 3.500000 # C3H C2H
pair_coeff    1    3 lj/cut/coul/long 0.044496 2.958040 # C3H H
pair_coeff    2    2 lj/cut/coul/long 0.065997 3.500000 # C2H C2H
pair_coeff    2    3 lj/cut/coul/long 0.044496 2.958040 # C2H H
pair_coeff    3    3 lj/cut/coul/long 0.029999 2.500000 # H H
pair_coeff    *  4*5 lj/cut/coul/long 0.000000 0.000000 # No lj for drudes
pair_coeff    1    * thole 1.368000
pair_coeff    2    * thole 1.368000
pair_coeff    4    * thole 1.368000
pair_coeff    5    * thole 1.368000

neighbor 2.0 bin

variable vTEMP   equal 260.0
variable vTEMP_D equal 1.0
variable vPRESS  equal 1.0

velocity gCORES  create ${vTEMP} 12345
velocity gCORES  create 260 12345
velocity gDRUDES create ${vTEMP_D} 12345
velocity gDRUDES create 1 12345

fix fSHAKE all shake 0.0001 20 0 b 2 4
  0 = # of size 2 clusters
  500 = # of size 3 clusters
  500 = # of size 4 clusters
  0 = # of frozen angles

compute cTEMP_DRUDE gDRUDES temp
compute cTEMP_DRUDE_DRUDE gDRUDES temp/drude
compute cTEMP_CORE gCORES temp/com

fix fDIRECT all drude/transform/direct
fix fNPT gCORES npt temp ${vTEMP} ${vTEMP} 100.0 iso ${vPRESS} ${vPRESS} 500.0
fix fNPT gCORES npt temp 260 ${vTEMP} 100.0 iso ${vPRESS} ${vPRESS} 500.0
fix fNPT gCORES npt temp 260 260 100.0 iso ${vPRESS} ${vPRESS} 500.0
fix fNPT gCORES npt temp 260 260 100.0 iso 1 ${vPRESS} 500.0
fix fNPT gCORES npt temp 260 260 100.0 iso 1 1 500.0
fix_modify fNPT temp cTEMP_CORE press thermo_press
WARNING: Temperature for fix modify is not for group all (../fix_nh.cpp:1349)
fix fNVT gDRUDES nvt temp ${vTEMP_D} ${vTEMP_D} 100.0
fix fNVT gDRUDES nvt temp 1 ${vTEMP_D} 100.0
fix fNVT gDRUDES nvt temp 1 1 100.0
fix fINVERSE all drude/transform/inverse

fix fMOMENTUM all momentum 100 linear 1 1 1

thermo_style custom step cpu etotal ke temp pe ebond eangle edihed eimp evdwl ecoul elong press vol c_cTEMP_DRUDE c_cTEMP_DRUDE_DRUDE c_cTEMP_CORE
thermo 50

timestep 0.5
run 2000
PPPM initialization ...
  G vector (1/distance) = 0.367867
  grid = 36 36 36
  stencil order = 5
  estimated absolute RMS force accuracy = 0.031354
  estimated relative force accuracy = 9.44215e-05
  using double precision FFTs
  3d grid and FFT values/proc = 79507 46656
Neighbor list info ...
  2 neighbor list requests
  update every 1 steps, delay 10 steps, check yes
  master list distance cutoff = 10
Memory usage per processor = 20.0348 Mbytes
Step CPU TotEng KinEng Temp PotEng E_bond E_angle E_dihed E_impro E_vdwl E_coul E_long Press Volume cTEMP_DR cTEMP_DR cTEMP_CO 
       0            0    6535.5187      2714.74    248.45112    3820.7787    3724.3278    140.75328    1.4735401            0   -518.77975    595169.42   -594696.41    -353319.1    55742.797            1    19.770966    341.28048 
      50      5.22311    3215.1869    2001.1608    183.14485    1214.0261    814.44506    675.36062    116.87519            0   -793.90823    595242.36   -594841.11    1944.2729    56249.476     173.2736    167.76909    186.91171 
     100    10.227673    2523.0688     1860.752    170.29474    662.31678    355.24668    701.15122    164.68906            0   -1006.6516    595312.12   -594864.24    86.472011    57226.212    82.312113    71.433085    203.32993 
     150    15.173996    2346.9399    1802.2596    164.94155    544.68025    217.95122    708.58544    159.61852            0   -976.00229    595301.78   -594867.25    3617.7853    57991.083    44.445235    30.831504    210.16004 
     200     20.09532    2290.2181    1738.8285    159.13638    551.38959    231.22904    721.37367      158.771            0   -990.52993    595299.74   -594869.19     893.7811    58741.287    32.457963    17.090969    206.67022 
     250    24.999426    2303.0288     1725.884    157.95171    577.14486    178.32081    841.02553    156.99898            0   -1033.3295    595302.42   -594868.29   -196.03219    59365.567    25.674767    9.3052628    207.58364 
     300    29.851434    2345.5233    1821.3685    166.69039    524.15476    153.65622    804.19049    140.93927            0   -1001.0202    595294.34   -594867.95    1757.1553    59756.858    24.205724    6.0839556    220.15104 
     350     34.94436    2385.2703    1745.1409    159.71409    640.12939    196.63707    823.17048    155.09461            0   -961.43931    595294.34   -594867.67    1910.0735    60144.853    20.055152    4.2856227     212.1133 
     400    39.740436    2438.5695    1812.3152    165.86183    626.25427    187.50813    838.79372    176.33892            0   -999.73626    595288.81   -594865.46   -486.37167    60565.451    21.497435    3.0443713    220.02681 
     450     44.77972    2497.0428    1769.3504    161.92972    727.69241    137.91493       964.75    167.77207            0   -968.77294     595292.1   -594866.07    -186.3232    60774.886    19.898845    2.4024542     215.2187 
     500    49.562557    2556.3612    1856.8834    169.94068    699.47783    196.02193    837.39855    165.06001            0   -920.13866    595286.62   -594865.49    2999.4263    60877.739    19.476851    1.7514785    226.39308 
     550    54.321238     2614.642    1743.1574    159.53256    871.48465    179.08045    1020.5184    175.74106            0   -930.77502    595293.02    -594866.1    930.03931    61114.653    18.852157    1.4127881    212.31448 
     600    59.058094    2675.6414    1732.5043    158.55759    943.13708     181.5366    1089.4084    173.61322            0   -931.45475    595296.21   -594866.17    573.15275    61243.647    19.121351    1.2084251    210.87291 
     650    63.798967     2735.379    1872.6736     171.3858    862.70533    169.51272    970.26954    172.79989            0   -875.46357     595291.7   -594866.11    2666.0512    61227.311    20.189748    1.0287505    228.11315 
     700    68.477432    2791.6638    1795.0002    164.27718    996.66359    195.57595    1053.8949    187.29564            0   -864.62898     595290.2   -594865.67   -310.80965     61358.13    19.318095   0.89519522    218.66441 
     750    73.197358    2850.8719    1939.9248    177.54058    910.94704    180.48404    994.25065    189.40248            0   -885.55892     595298.4   -594866.04   -460.17427    61456.311    21.108734   0.78259725    236.23239 
     800    77.902405     2906.542    1831.5125    167.61876    1075.0296    202.99614    1071.7962    199.95795            0   -827.09221    595293.29   -594865.92   -94.715801    61412.501     19.44172   0.75102754    223.21324 
     850    82.592179     2961.237    2037.8805    186.50541    923.35649    200.55231    943.16979    174.54525            0   -818.22638    595288.99   -594865.67   -1595.0433    61444.685    21.677359   0.65132414    248.34712 
     900    87.287785    3012.5007    1967.2991    180.04585    1045.2017    217.36279     1051.041    186.14596            0    -842.7919    595299.28   -594865.84    -1824.897    61540.701    19.692038   0.62316392    240.20822 
     950     91.98018    3059.0581    1939.3798     177.4907    1119.6783    244.52002    1062.0289    199.51222            0   -819.58196    595299.54   -594866.34   -1480.3136    61520.557    21.254036   0.61198663    236.10925 
    1000    96.625196    3102.8761    2061.4151    188.65928    1041.4611    176.50868      1022.02     187.3607            0   -774.28191    595296.35   -594866.49    438.05773    61452.647    20.952974   0.60320077    251.58046 
    1050    101.25339    3142.1949    2091.2082    191.38593    1050.9866    217.80508    1013.8412    197.56755            0   -812.05147    595299.93    -594866.1   -927.99801    61522.531    21.713702   0.63270266    255.04494 
    1100    105.89617    3176.1583    2052.7678    187.86789    1123.3905    224.00372    1061.2904    211.85127            0   -807.05067    595299.22   -594865.92   -1554.1032    61526.825    20.906248   0.67686134    250.50967 
    1150    110.52616    3208.0668    2095.2452    191.75539    1112.8215    200.29958    1032.1862     202.8297            0   -748.59854    595290.91   -594864.81    631.11635    61438.191    20.844922   0.71186027     255.8786 
    1200    115.16159    3235.9558    1988.7744    182.01126    1247.1814    226.56524    1137.6953    220.68162            0   -763.91869    595290.64   -594864.48   -777.80746     61505.46    20.582962   0.75209806    242.57724 
    1250    119.80395    3260.6435    2149.7716    196.74561    1110.8719    167.46388    1063.6393     244.4644            0    -793.8093    595292.97   -594863.85   -1021.3353    61569.177     21.35412   0.84288621    262.55006 
    1300    124.44699    3281.1378    2100.9115    192.27396    1180.2263     214.9988    1074.6909    235.11256            0   -766.72927     595285.4   -594863.25   -45.085849    61505.836     21.42896   0.96303469    256.37287 
    1350    129.04168    3298.2363    2071.1089    189.54645    1227.1274    213.59121    1124.7297    220.91267            0   -754.68565    595285.77   -594863.19    499.22915    61497.505     20.14868    1.0446006    253.10193 
    1400    133.64939     3306.123    2204.6193    201.76523    1101.5038    175.03101    1064.5225    237.50765            0   -805.88979    595294.06   -594863.73    1411.1908     61537.23    22.059386    1.1265777    269.18842 
    1450    138.24646    3305.7517    2078.5614     190.2285    1227.1903    189.10074    1145.1454    243.45654            0   -776.52836    595289.46   -594863.44    592.41197    61481.814    21.750275    1.2146644    253.43963 
    1500    142.84773    3301.1988    2122.0883    194.21205    1179.1105    195.20398    1082.0683    233.51906            0   -754.23315    595285.69   -594863.14    1907.4539    61382.227    21.956954    1.3216357    258.84012 
    1550    147.43763    3291.3862    2051.9206    187.79035    1239.4656    177.53589    1170.2927     240.7413            0   -777.61648    595291.47   -594862.96    1203.6596    61396.879    20.914209    1.3858204    250.40017 
    1600     152.0221    3277.7786    1996.1311    182.68454    1281.6475    237.57002     1166.022    239.34593            0    -787.4446    595288.85    -594862.7   -825.43456    61366.504    19.630426    1.4213729     243.8601 
    1650    156.63418    3261.4923    2039.3206    186.63721    1222.1717    228.35542    1073.3962    230.55309            0    -732.7441    595285.03   -594862.42     1245.934    61222.814    20.592631    1.4838798    248.93492 
    1700    161.21567    3245.7223    2080.4587    190.40214    1165.2636    164.66936    1094.3733    235.72812            0    -755.0049    595287.84   -594862.34   -53.529298    61216.057     20.41733    1.4408917    254.17792 
    1750    165.81409    3231.7618    1971.5595    180.43576    1260.2024    255.37596    1108.6462    242.97522            0   -775.21935    595291.28   -594862.86   -1372.8828    61216.001    19.869448    1.4017222    240.67784 
    1800    170.40608    3222.2661    2056.9533    188.25094    1165.3128    218.99815    1012.7615    244.00134            0   -737.26456     595289.7   -594862.89    881.40695    61091.862    19.603477    1.3287906    251.52475 
    1850    175.00015    3220.0297    2076.8128    190.06847    1143.2168    183.50782    1037.2004    235.68802            0   -741.95718    595292.45   -594863.67     673.7134    61057.254    20.629399    1.2255661    253.63958 
    1900    179.58869    3221.3074    2072.9634    189.71618     1148.344     229.1605    1010.0984    238.74512            0   -761.89265    595295.54    -594863.3   -550.61899    61080.056    19.178438    1.1321437    253.69889 
    1950    184.17854    3231.4995    2010.0472    183.95813    1221.4523    226.16995    1046.0671    249.81025            0   -728.02449    595290.74   -594863.31   -805.41808    61010.079    19.385355    1.0452679    245.70328 
    2000    188.71569    3248.9725     2025.813      185.401    1223.1594    203.84299     1065.195    242.56015            0   -715.55228    595290.56   -594863.45    172.11165    60945.794     20.14283   0.97607799     247.4036 
Loop time of 188.716 on 1 procs (1 MPI x 1 OpenMP) for 2000 steps with 4500 atoms

Pair  time (%) = 75.6932 (40.1096)
Bond  time (%) = 17.174 (9.10046)
Kspce time (%) = 21.8632 (11.5853)
Neigh time (%) = 1.51493 (0.802756)
Comm  time (%) = 0.144436 (0.0765365)
Outpt time (%) = 0.0061202 (0.00324308)
Other time (%) = 72.3198 (38.3221)

Nlocal:    4500 ave 4500 max 4500 min
Histogram: 1 0 0 0 0 0 0 0 0 0
Nghost:    8921 ave 8921 max 8921 min
Histogram: 1 0 0 0 0 0 0 0 0 0
Neighs:    731338 ave 731338 max 731338 min
Histogram: 1 0 0 0 0 0 0 0 0 0

Total # of neighbors = 731338
Ave neighs/atom = 162.52
Ave special neighs/atom = 13.3333
Neighbor list builds = 36
Dangerous builds = 0
