LAMMPS (6 Apr 2015)
WARNING: OMP_NUM_THREADS environment is not set. (../comm.cpp:89)
  using 1 OpenMP thread(s) per MPI task
# 250 butane system for drude polarizability example (Langevin)

units real
boundary p p p

atom_style drude
bond_style harmonic
angle_style harmonic
dihedral_style opls
special_bonds lj/coul 0.0 0.0 0.5

pair_style hybrid/overlay lj/cut/coul/long 8.0 8.0 thole 2.089 8.0
pair_modify mix geometric tail yes
kspace_style pppm 1.0e-4

read_data data.drude
  orthogonal box = (-19.1 -19.0999 -19.1) to (19.1 19.1 19.1)
  1 by 1 by 1 MPI processor grid
  reading atoms ...
  4500 atoms
  scanning bonds ...
  5 = max bonds/atom
  scanning angles ...
  6 = max angles/atom
  scanning dihedrals ...
  9 = max dihedrals/atom
  reading bonds ...
  4250 bonds
  reading angles ...
  6000 angles
  reading dihedrals ...
  6750 dihedrals
  5 = max # of 1-2 neighbors
  8 = max # of 1-3 neighbors
  12 = max # of 1-4 neighbors
  17 = max # of special neighbors
Rebuild special list taking Drude particles into account
Old max number of 1-2 to 1-4 neighbors: 17
New max number of 1-2 to 1-4 neighbors: 17 (+0)

comm_modify vel yes

group gBUTANE molecule 1:250
4500 atoms in group gBUTANE
group gCORES type 1 2 3
3500 atoms in group gCORES
group gDRUDES type 4 5
1000 atoms in group gDRUDES

pair_coeff    1    1 lj/cut/coul/long 0.065997 3.500000 # C3H C3H
pair_coeff    1    2 lj/cut/coul/long 0.065997 3.500000 # C3H C2H
pair_coeff    1    3 lj/cut/coul/long 0.044496 2.958040 # C3H H
pair_coeff    2    2 lj/cut/coul/long 0.065997 3.500000 # C2H C2H
pair_coeff    2    3 lj/cut/coul/long 0.044496 2.958040 # C2H H
pair_coeff    3    3 lj/cut/coul/long 0.029999 2.500000 # H H
pair_coeff    *  4*5 lj/cut/coul/long 0.000000 0.000000 # No lj for drudes
pair_coeff    1    * thole 1.368000
pair_coeff    2    * thole 1.368000
pair_coeff    4    * thole 1.368000
pair_coeff    5    * thole 1.368000

neighbor 2.0 bin

variable vTEMP   equal 260.0
variable vTEMP_D equal 1.0
variable vPRESS  equal 1.0

velocity gCORES  create ${vTEMP} 12345
velocity gCORES  create 260 12345
velocity gDRUDES create ${vTEMP_D} 12345
velocity gDRUDES create 1 12345

fix fSHAKE all shake 0.0001 20 0 b 2 4
  0 = # of size 2 clusters
  500 = # of size 3 clusters
  500 = # of size 4 clusters
  0 = # of frozen angles

compute cTEMP_DRUDE gDRUDES temp
compute cTEMP_DRUDE_DRUDE gDRUDES temp/drude
compute cTEMP_CORE gCORES temp/com

fix fLANG all langevin/drude ${vTEMP} 100.0 200611 ${vTEMP_D} 20.0 260514 zero yes
fix fLANG all langevin/drude 260 100.0 200611 ${vTEMP_D} 20.0 260514 zero yes
fix fLANG all langevin/drude 260 100.0 200611 1 20.0 260514 zero yes
fix fNPH all nph iso ${vPRESS} ${vPRESS} 500.0
fix fNPH all nph iso 1 ${vPRESS} 500.0
fix fNPH all nph iso 1 1 500.0

thermo_style custom step cpu etotal ke temp pe ebond eangle edihed eimp evdwl ecoul elong press vol c_cTEMP_DRUDE c_cTEMP_DRUDE_DRUDE c_cTEMP_CORE f_fLANG[1] f_fLANG[2] f_fLANG[3] f_fLANG[4] f_fLANG[5] f_fLANG[6]
thermo 50

timestep 0.5
run 2000
PPPM initialization ...
  G vector (1/distance) = 0.367867
  grid = 36 36 36
  stencil order = 5
  estimated absolute RMS force accuracy = 0.031354
  estimated relative force accuracy = 9.44215e-05
  using double precision FFTs
  3d grid and FFT values/proc = 79507 46656
Neighbor list info ...
  2 neighbor list requests
  update every 1 steps, delay 10 steps, check yes
  master list distance cutoff = 10
Memory usage per processor = 20.1567 Mbytes
Step CPU TotEng KinEng Temp PotEng E_bond E_angle E_dihed E_impro E_vdwl E_coul E_long Press Volume cTEMP_DR cTEMP_DR cTEMP_CO fLANG[1] fLANG[2] fLANG[3] fLANG[4] fLANG[5] fLANG[6] 
       0            0    6535.5187      2714.74    248.45112    3820.7787    3724.3278    140.75328    1.4735401            0   -518.77975    595169.42   -594696.41    -353319.1    55742.797            1    19.770966    341.28048    334.73928    18.435655         7997         3000    2659.7868    54.953184 
      50    4.9855912    3438.9828    2062.1712    188.72849    1376.8116    851.61585    807.26946    115.52829            0    -797.7655     595242.7   -594842.54    2130.6594     56257.78    157.49128    163.58076    200.50459     205.9542    153.89544         7997         3000    1636.4803    458.73308 
     100    9.7621162    2905.5159     1972.777    180.54719    932.73892    363.23451    922.36602    173.07872            0   -966.51511    595306.45   -594865.88     722.4043    57258.616    64.403736     53.74016    224.14087    232.23744    54.789146         7997         3000    1845.3229    163.31604 
     150    14.491383      2826.87    1940.5059    177.59375    886.36417    234.30397    982.99079    185.56851            0   -940.48428    595292.04   -594868.06    3782.4641    58079.094     30.03143    15.339825    232.96122    242.42197    14.792617         7997         3000    1926.2476     44.09398 
     200    19.436695    2816.9406    1858.0528    170.04771    958.88777    229.00462    1070.9991    190.26273            0   -959.69893    595296.99   -594868.67    1563.0819    58860.941    21.574327    5.4425117    225.75413    234.67181    5.3425037         7997         3000    1864.6661    15.924989 
     250    24.095705    2866.7127    1903.9266    174.24604    962.78614    214.55725    1133.8599    186.87646            0   -1000.3417    595296.76   -594868.92   -4.1323034    59540.434    19.046997    2.6069353    232.47455    241.71117    2.5390617         7997         3000    1920.5997    7.5684608 
     300    28.713495     2943.491    1980.6473    181.26747    962.84371    212.42299    1120.6451     184.3108            0   -983.16536    595297.55   -594868.92    1479.4514    60026.051    18.774509    1.8112857    242.23217     251.6138    1.7629681         7997         3000    1999.2845    5.2550729 
     350    33.314639    3018.3619    1941.3053    177.66692    1077.0566    229.84587    1179.2114    195.23017            0   -954.31237    595295.58    -594868.5    238.95287    60500.524    18.093018    1.5792685    237.53624    246.44684    1.5392898         7997         3000    1958.2286    4.5883304 
     400    37.849139    2987.6075     1946.136    178.10902    1041.4715    240.85431    1156.1112    190.24209            0   -974.92437    595297.22   -594868.03    173.13255    60935.688    18.068024    1.4976752    238.15356     246.0903    1.4811305         7997         3000    1955.3957    4.4149688 
     450    42.410342    3011.8127    1946.0811      178.104    1065.7316    216.15955    1189.1221    189.57515            0   -957.98843    595296.54   -594867.68    165.22655     61241.27    18.358984    1.5079442    238.03771    247.00542    1.4945609         7997         3000     1962.667    4.4550021 
     500    46.957969    3060.1639     1974.992     180.7499    1085.1718    222.15099    1187.8861    195.54157            0   -948.29669     595295.9   -594868.01    1394.2739     61497.94    18.888086    1.4989057    241.47769    250.61414    1.4733537         7997         3000    1991.3413    4.3917875 
     550    51.494732    3116.8983    1977.3287    180.96375    1139.5697    223.00395    1219.9964    207.90438            0   -940.44324    595297.17   -594868.06    713.18852    61739.173     17.37114    1.4769488    242.34037    250.66611    1.4514086         7997         3000    1991.7543    4.3263732 
     600    55.981973    3153.3007    1986.5851    181.81089    1166.7156    223.89293    1252.9157    202.44002            0   -941.21383    595296.39   -594867.71    -628.8697    61949.508    18.145918    1.5310942    243.21507    251.72579    1.4864341         7997         3000    2000.1744    4.4307778 
     650    60.507304    3222.3509    2016.2609     184.5268      1206.09    222.03788    1282.9372    206.03536            0   -934.10952     595296.8   -594867.61    494.34757    62108.083    19.228628    1.5305009    246.54391    255.92219    1.5015663         7997         3000    2033.5183    4.4758839 
     700    65.023694    3217.2307    2042.5994    186.93728    1174.6313    229.20521    1248.9677    194.87644            0     -929.071    595298.49   -594867.84   -176.43878    62252.132    19.223318    1.5359633    249.86076    257.86295    1.4973495         7997         3000    2048.9393    4.4633145 
     750    69.531706    3275.9996    2089.0031    191.18411    1186.9966    226.32592    1245.3449    205.92059            0   -920.58507    595297.41   -594867.42   -201.71722    62361.393    18.848297    1.4744491    255.84127    264.53737    1.4535803         7997         3000    2101.9732    4.3328469 
     800    74.049421    3268.0793    2044.5739    187.11799    1223.5054    217.53444    1273.9922    215.09562            0   -912.22778    595296.61    -594867.5   -59.455382    62452.296    18.339797    1.4864081    250.44041    259.28325    1.4700897         7997         3000    2060.2247     4.382058 
     850    78.498688    3311.9029    2078.1845    190.19401    1233.7184     226.1915    1285.7715    215.20762            0   -922.21945    595295.81   -594867.04   -403.09342    62572.458    18.282808    1.4750321    254.69166     263.5922    1.4583434         7997         3000     2094.463    4.3470447 
     900    82.981795    3295.9524    2035.5701    186.29396    1260.3823    226.84274    1298.4398    228.69957            0    -924.2937    595298.12   -594867.43   -138.88931    62663.369    18.698558    1.5175818    249.17263    258.06434    1.5032057         7997         3000    2050.5395    4.4807707 
     950    87.464155    3303.5486    2112.3763    193.32322    1191.1723    227.52336    1248.1186    202.58123            0   -917.15609    595297.44   -594867.33    682.00104    62705.635      19.1623    1.6366275    258.66512    267.56782    1.5872214         7997         3000    2126.0527    4.7312056 
    1000    91.944708     3313.281    2095.2768    191.75828    1218.0042    227.69283    1258.8696    202.93201            0   -900.22276    595295.86   -594867.13    236.76679    62741.738     18.60548    1.5765538    256.72178    265.06241    1.5340471         7997         3000    2106.1451    4.5727031 
    1050    96.381562    3324.0677    2114.0672    193.47797    1210.0005    219.23925    1258.6181    213.25313            0   -909.84806    595295.36   -594866.62    102.81971    62805.727    19.932117    1.5598209    258.58925    267.62565    1.5276024         7997         3000    2126.5122    4.5534926 
    1100    100.84533    3295.8067    2086.2075    190.92827    1209.5992    236.14687    1250.1522    208.78505            0   -914.46226    595295.66   -594866.68   -263.60495    62876.299    19.293388    1.5954052    255.32254    264.70257    1.5575938         7997         3000    2103.2858    4.6428914 
    1150    105.32596    3330.8329    2098.5083    192.05403    1232.3246     214.0985    1286.0008    211.49184            0   -908.52223    595295.82   -594866.56    382.76506    62931.279    19.367917    1.5129733    256.84272    266.29873    1.4896646         7997         3000    2115.9687    4.4404072 
    1200    109.79721    3300.2904    2062.2004    188.73116    1238.0899    237.77056    1256.4402    212.57782            0   -897.27192     595295.3   -594866.73    188.48597    62990.286    18.811884    1.4966759    252.48178    261.39385    1.4556687         7997         3000    2076.9953     4.339072 
    1250    114.21595    3332.9758    2078.9298    190.26222     1254.046    224.94979    1276.6684    218.45035            0   -893.72631    595294.23   -594866.53   -418.60166    63052.587    18.545895     1.491404    254.68682    263.79027     1.477789         7997         3000    2096.0369    4.4050084 
    1300    118.67106    3325.2064    2100.8667    192.26987    1224.3397    219.62131    1256.4367    222.33144            0   -902.84165    595295.45   -594866.66    20.214329    63133.971    19.485844    1.5136367    257.09541    265.65994     1.493396         7997         3000    2110.8929    4.4515299 
    1350    123.13845     3340.029    2096.7473    191.89286    1243.2816    224.45535    1265.0073    217.11116            0    -892.9147    595296.49   -594866.87    19.611029    63223.184    18.825762    1.5138994     256.8243    265.52373    1.4758995         7997         3000    2109.8106    4.3993762 
    1400    127.59053    3317.3159    2056.0572    188.16893    1261.2587    230.58293    1284.4205    209.54301            0   -892.23866    595295.86   -594866.91    763.93507     63306.86    19.176677    1.5350284    251.57198    261.13978    1.5099698         7997         3000    2074.9765    4.5009331 
    1450    132.05044    3335.3342    2074.2301     189.8321    1261.1041    237.45443    1276.5978     214.6171            0   -896.24657     595295.2   -594866.52   -33.627014    63387.474    19.147921    1.6254517    253.86977    262.65085    1.5943853         7997         3000    2086.9832    4.7525597 
    1500    136.45758    3439.7932    2114.5668    193.52369    1325.2264    266.51666    1309.1041    212.65165            0   -893.44134     595297.3    -594866.9    52.804765     63463.88    19.358185     1.600632    258.86728    268.29004    1.5656972         7997         3000    2131.7914    4.6670459 
    1550    140.90661    3436.1974    2172.6224     198.8369     1263.575    249.54076    1266.5163    212.49003            0   -894.84593    595296.95   -594867.08   -307.75224    63529.143    20.528826    1.5680775    265.73512    274.76666    1.5451612         7997         3000    2183.2535    4.6058319 
    1600     145.3596    3424.6451    2095.5727    191.78537    1329.0723    236.17765    1316.6592    232.17096            0   -884.66724    595295.11   -594866.38   -126.78854    63569.274    19.555972    1.5333233    256.40283    265.49467    1.5041523         7997         3000    2109.5798    4.4835923 
    1650    149.79678    3423.0481    2139.3836     195.7949    1283.6645    232.81353     1292.895    214.51806            0   -885.85725    595296.02   -594866.72    564.35543    63623.819    20.184102    1.5246471    261.68119    271.17118    1.5220693         7997         3000    2154.6844    4.5369994 
    1700    154.20542     3359.466    2080.1114    190.37036    1279.3546     238.7049    1284.4127    209.64745            0    -882.1127    595295.46   -594866.76   -313.11116    63679.611    19.065123    1.5399437    254.64103    263.64366    1.5140988         7997         3000    2094.8719    4.5132409 
    1750    158.63881    3359.0978    2089.1173    191.19457    1269.9805    231.84065    1262.2406    213.61485            0    -866.9177    595296.35   -594867.15    320.15828    63724.345     20.62175    1.6225932    255.19102    264.91089    1.6013899         7997         3000    2104.9411    4.7734391 
    1800    163.08449     3312.645    2046.6084    187.30419    1266.0366    209.53128    1285.2773    211.31572            0   -868.40672    595295.23   -594866.91    747.60343    63787.473    19.290549    1.5618003    250.34009    259.26894     1.543384         7997         3000     2060.111    4.6005345 
    1850    167.54149    3310.5184    2083.9657     190.7231    1226.5527    228.22805     1248.047    202.39332            0   -880.19297    595294.88   -594866.81    356.03422    63885.001    19.080047     1.506846    255.12045    264.32012     1.476262         7997         3000     2100.247    4.4004567 
    1900    171.99437    3339.2869      2074.22    189.83118    1265.0668    237.84179    1278.3516    207.72024            0   -887.81716    595295.51   -594866.54   -475.89478    63963.135    18.431168    1.5607548    254.13718    263.07421    1.5284015         7997         3000    2090.3471    4.5558746 
    1950    176.38683    3394.9466    2117.0927    193.75486    1277.8539    230.77747    1288.8704    201.39673            0   -871.24995    595294.83   -594866.77    25.852807    63991.268    19.345886    1.5278444       259.19    268.30152    1.5055876         7997         3000    2131.8825    4.4878706 
    2000    180.83392    3372.7721    2081.0853    190.45949    1291.6868    239.99715    1277.6278    214.75479            0   -869.06051    595294.78   -594866.41    42.573419    64037.605    19.116118    1.5289881    254.74448    263.54853    1.5079121         7997         3000     2094.116    4.4947997 
Loop time of 180.834 on 1 procs (1 MPI x 1 OpenMP) for 2000 steps with 4500 atoms

Pair  time (%) = 77.0468 (42.6064)
Bond  time (%) = 16.9086 (9.35036)
Kspce time (%) = 21.4005 (11.8343)
Neigh time (%) = 1.31115 (0.725058)
Comm  time (%) = 0.292223 (0.161597)
Outpt time (%) = 0.00741816 (0.00410219)
Other time (%) = 63.8673 (35.3182)

Nlocal:    4500 ave 4500 max 4500 min
Histogram: 1 0 0 0 0 0 0 0 0 0
Nghost:    7967 ave 7967 max 7967 min
Histogram: 1 0 0 0 0 0 0 0 0 0
Neighs:    777696 ave 777696 max 777696 min
Histogram: 1 0 0 0 0 0 0 0 0 0

Total # of neighbors = 777696
Ave neighs/atom = 172.821
Ave special neighs/atom = 13.3333
Neighbor list builds = 31
Dangerous builds = 0
