LAMMPS (6 Apr 2015)
WARNING: OMP_NUM_THREADS environment is not set. (../comm.cpp:89)
  using 1 OpenMP thread(s) per MPI task
# 250 butane system for drude polarizability example (Nose-Hoover)

units real
boundary p p p

atom_style drude
bond_style harmonic
angle_style harmonic
dihedral_style opls
special_bonds lj/coul 0.0 0.0 0.5

pair_style hybrid/overlay lj/cut/coul/long 8.0 8.0 thole 2.089 8.0
pair_modify mix geometric tail yes
kspace_style pppm 1.0e-4

read_data data.drude
  orthogonal box = (-19.1 -19.0999 -19.1) to (19.1 19.1 19.1)
  2 by 1 by 2 MPI processor grid
  reading atoms ...
  4500 atoms
  scanning bonds ...
  5 = max bonds/atom
  scanning angles ...
  6 = max angles/atom
  scanning dihedrals ...
  9 = max dihedrals/atom
  reading bonds ...
  4250 bonds
  reading angles ...
  6000 angles
  reading dihedrals ...
  6750 dihedrals
  5 = max # of 1-2 neighbors
  8 = max # of 1-3 neighbors
  12 = max # of 1-4 neighbors
  17 = max # of special neighbors
Rebuild special list taking Drude particles into account
Old max number of 1-2 to 1-4 neighbors: 17
New max number of 1-2 to 1-4 neighbors: 17 (+0)

group gBUTANE molecule 1:250
4500 atoms in group gBUTANE
group gCORES type 1 2 3
3500 atoms in group gCORES
group gDRUDES type 4 5
1000 atoms in group gDRUDES

pair_coeff    1    1 lj/cut/coul/long 0.065997 3.500000 # C3H C3H
pair_coeff    1    2 lj/cut/coul/long 0.065997 3.500000 # C3H C2H
pair_coeff    1    3 lj/cut/coul/long 0.044496 2.958040 # C3H H
pair_coeff    2    2 lj/cut/coul/long 0.065997 3.500000 # C2H C2H
pair_coeff    2    3 lj/cut/coul/long 0.044496 2.958040 # C2H H
pair_coeff    3    3 lj/cut/coul/long 0.029999 2.500000 # H H
pair_coeff    *  4*5 lj/cut/coul/long 0.000000 0.000000 # No lj for drudes
pair_coeff    1    * thole 1.368000
pair_coeff    2    * thole 1.368000
pair_coeff    4    * thole 1.368000
pair_coeff    5    * thole 1.368000

neighbor 2.0 bin

variable vTEMP   equal 260.0
variable vTEMP_D equal 1.0
variable vPRESS  equal 1.0

velocity gCORES  create ${vTEMP} 12345
velocity gCORES  create 260 12345
velocity gDRUDES create ${vTEMP_D} 12345
velocity gDRUDES create 1 12345

fix fSHAKE all shake 0.0001 20 0 b 2 4
  0 = # of size 2 clusters
  500 = # of size 3 clusters
  500 = # of size 4 clusters
  0 = # of frozen angles

compute cTEMP_DRUDE gDRUDES temp
compute cTEMP_DRUDE_DRUDE gDRUDES temp/drude
compute cTEMP_CORE gCORES temp/com

fix fDIRECT all drude/transform/direct
fix fNPT gCORES npt temp ${vTEMP} ${vTEMP} 100.0 iso ${vPRESS} ${vPRESS} 500.0
fix fNPT gCORES npt temp 260 ${vTEMP} 100.0 iso ${vPRESS} ${vPRESS} 500.0
fix fNPT gCORES npt temp 260 260 100.0 iso ${vPRESS} ${vPRESS} 500.0
fix fNPT gCORES npt temp 260 260 100.0 iso 1 ${vPRESS} 500.0
fix fNPT gCORES npt temp 260 260 100.0 iso 1 1 500.0
fix_modify fNPT temp cTEMP_CORE press thermo_press
WARNING: Temperature for fix modify is not for group all (../fix_nh.cpp:1349)
fix fNVT gDRUDES nvt temp ${vTEMP_D} ${vTEMP_D} 100.0
fix fNVT gDRUDES nvt temp 1 ${vTEMP_D} 100.0
fix fNVT gDRUDES nvt temp 1 1 100.0
fix fINVERSE all drude/transform/inverse

fix fMOMENTUM all momentum 100 linear 1 1 1

thermo_style custom step cpu etotal ke temp pe ebond eangle edihed eimp evdwl ecoul elong press vol c_cTEMP_DRUDE c_cTEMP_DRUDE_DRUDE c_cTEMP_CORE
thermo 50

timestep 0.5
run 2000
PPPM initialization ...
  G vector (1/distance) = 0.367867
  grid = 36 36 36
  stencil order = 5
  estimated absolute RMS force accuracy = 0.031354
  estimated relative force accuracy = 9.44215e-05
  using double precision FFTs
  3d grid and FFT values/proc = 26875 11664
Neighbor list info ...
  2 neighbor list requests
  update every 1 steps, delay 10 steps, check yes
  master list distance cutoff = 10
Memory usage per processor = 14.6614 Mbytes
Step CPU TotEng KinEng Temp PotEng E_bond E_angle E_dihed E_impro E_vdwl E_coul E_long Press Volume cTEMP_DR cTEMP_DR cTEMP_CO 
       0            0    6535.5187      2714.74    248.45112    3820.7787    3724.3278    140.75328    1.4735401            0   -518.77975    595169.42   -594696.41    -353319.1    55742.797            1    19.693196    341.28048 
      50     1.615593    3215.1869    2001.1608    183.14485    1214.0261    814.44506    675.36062    116.87519            0   -793.90823    595242.36   -594841.11    1944.2729    56249.476     173.2736    167.76909    186.91171 
     100    3.0863571    2523.0688     1860.752    170.29474    662.31679    355.24668    701.15122    164.68906            0   -1006.6516    595312.12   -594864.24    86.471981    57226.212    82.312112    71.433085    203.32993 
     150    4.4973922    2346.9399    1802.2596    164.94155     544.6803    217.95122    708.58544    159.61852            0   -976.00229    595301.78   -594867.25    3617.7853    57991.083    44.445235    30.831504    210.16004 
     200    5.8996301    2290.2182    1738.8285    159.13638    551.38965    231.22904    721.37367      158.771            0   -990.52993    595299.74   -594869.19    893.78122    58741.287    32.457964    17.090929    206.67022 
     250     7.278661    2303.0289     1725.884    157.95171    577.14494    178.32081    841.02553    156.99898            0   -1033.3295    595302.42   -594868.29   -196.03213    59365.567    25.674768    9.3052631    207.58364 
     300    8.6584032    2345.5233    1821.3685    166.69039     524.1548    153.65622    804.19049    140.93927            0   -1001.0202    595294.34   -594867.95    1757.1553    59756.858    24.205726    6.0839553    220.15104 
     350    10.038152    2385.2705    1745.1409    159.71409    640.12954    196.63706    823.17048    155.09461            0   -961.43931    595294.34   -594867.67    1910.0735    60144.853    20.055158    4.2856239     212.1133 
     400      11.4003    2438.5696    1812.3152    165.86183    626.25445    187.50814    838.79372    176.33892            0   -999.73627    595288.81   -594865.46   -486.37179    60565.451    21.497436    3.0443707    220.02681 
     450    12.760672    2497.0425    1769.3504    161.92972    727.69212    137.91493    964.74999    167.77207            0   -968.77294     595292.1   -594866.07   -186.32306    60774.886    19.898845    2.4024533     215.2187 
     500    14.111789    2556.3614    1856.8834    169.94069    699.47796    196.02192    837.39855    165.06001            0   -920.13866    595286.62   -594865.49    2999.4267    60877.739    19.476853    1.7514793    226.39308 
     550    15.468912    2614.6416    1743.1574    159.53256    871.48428    179.08046    1020.5184    175.74106            0   -930.77502    595293.02    -594866.1    930.03953    61114.653    18.852161    1.4127894    212.31448 
     600    16.822786    2675.6415    1732.5043    158.55759    943.13726    181.53661    1089.4084    173.61322            0   -931.45475    595296.21   -594866.17    573.15242    61243.647     19.12135    1.2084283    210.87291 
     650    18.180399    2735.3786    1872.6736    171.38579    862.70494    169.51273    970.26954    172.79989            0   -875.46357     595291.7   -594866.11    2666.0508    61227.311    20.189745    1.0287501    228.11315 
     700    19.524347    2791.6635    1795.0002    164.27718     996.6633    195.57595    1053.8949    187.29564            0   -864.62898     595290.2   -594865.67   -310.80979     61358.13    19.318097   0.89519616    218.66441 
     750    20.871066    2850.8717    1939.9248    177.54058    910.94684    180.48405    994.25065    189.40248            0   -885.55891     595298.4   -594866.04     -460.174    61456.311    21.108729   0.78259767    236.23239 
     800    22.206182     2906.542    1831.5125    167.61875    1075.0296    202.99615    1071.7962    199.95796            0    -827.0922    595293.29   -594865.92   -94.715558    61412.501    19.441721   0.75102831    223.21323 
     850    23.548925    2961.2371    2037.8805    186.50542    923.35658     200.5523     943.1698    174.54524            0   -818.22639    595288.99   -594865.67   -1595.0438    61444.685    21.677362   0.65132471    248.34712 
     900    24.889642    3012.5007     1967.299    180.04585    1045.2016    217.36279     1051.041    186.14596            0    -842.7919    595299.28   -594865.84   -1824.8967    61540.701    19.692034   0.62316799    240.20822 
     950    26.213403    3059.0582    1939.3798     177.4907    1119.6784    244.52005    1062.0289    199.51223            0   -819.58197    595299.54   -594866.34   -1480.3135    61520.557    21.254044   0.61198774    236.10924 
    1000    27.534167     3102.876    2061.4151    188.65928     1041.461    176.50867      1022.02    187.36069            0   -774.28191    595296.35   -594866.49    438.05839    61452.647    20.952979   0.60320234    251.58045 
    1050    28.840834    3142.1945    2091.2081    191.38592    1050.9863    217.80508    1013.8412     197.5676            0   -812.05147    595299.93    -594866.1    -927.9981     61522.53    21.713703   0.63270404    255.04493 
    1100    30.156398    3176.1583    2052.7679     187.8679    1123.3904     224.0037    1061.2904    211.85125            0    -807.0507    595299.22   -594865.92   -1554.1035    61526.825    20.906239   0.67686387    250.50969 
    1150    31.469853    3208.0666    2095.2452    191.75539    1112.8214    200.29962    1032.1862    202.82967            0   -748.59855    595290.91   -594864.81    631.11623     61438.19    20.844934   0.71185997    255.87859 
    1200    32.782068    3235.9559    1988.7745    182.01127    1247.1814    226.56515    1137.6952    220.68164            0    -763.9187    595290.64   -594864.48   -777.80694     61505.46    20.582995   0.75209927    242.57724 
    1250    34.090499    3260.6438    2149.7716    196.74561    1110.8723    167.46387    1063.6393    244.46444            0   -793.80931    595292.97   -594863.85   -1021.3345    61569.176    21.354113   0.84288282    262.55005 
    1300    35.417468     3281.138    2100.9115    192.27396    1180.2265    214.99883    1074.6909    235.11264            0   -766.72929     595285.4   -594863.25   -45.085987    61505.836    21.428947    0.9630348    256.37287 
    1350     36.74174    3298.2367    2071.1088    189.54645    1227.1279    213.59123    1124.7297    220.91277            0   -754.68566    595285.77   -594863.19    499.22857    61497.504     20.14865    1.0446001    253.10194 
    1400    38.059743    3306.1232    2204.6195    201.76525    1101.5038    175.03103    1064.5224    237.50764            0   -805.88981    595294.06   -594863.73    1411.1916     61537.23    22.059409    1.1265731    269.18844 
    1450    39.382988    3305.7513    2078.5614     190.2285    1227.1899    189.10069    1145.1454    243.45655            0   -776.52844    595289.45   -594863.44    592.41279    61481.814    21.750269    1.2146568    253.43963 
    1500    40.814494     3301.199    2122.0884    194.21207    1179.1105    195.20405    1082.0683    233.51898            0   -754.23325    595285.69   -594863.14    1907.4544    61382.227    21.956923    1.3216299    258.84016 
    1550    42.154891    3291.3864    2051.9206    187.79035    1239.4658     177.5359    1170.2927    240.74142            0   -777.61649    595291.47   -594862.96    1203.6593    61396.878    20.914164     1.385806    250.40018 
    1600     43.43597    3277.7784    1996.1303    182.68447     1281.648    237.56998    1166.0219    239.34674            0   -787.44452    595288.85    -594862.7   -825.43177    61366.503    19.630367    1.4213652    243.86002 
    1650    44.739293    3261.4921    2039.3215    186.63729    1222.1706    228.35528    1073.3962    230.55271            0   -732.74458    595285.03   -594862.42    1245.9326    61222.813    20.592692    1.4838856    248.93501 
    1700    46.043857    3245.7278    2080.4595    190.40221    1165.2683    164.66943    1094.3731    235.72788            0   -755.00509    595287.85   -594862.34   -53.490896    61216.055    20.417419    1.4409023    254.17799 
    1750    47.339431    3231.7619    1971.5593    180.43574    1260.2026    255.37621    1108.6458    242.97549            0   -775.21943    595291.28   -594862.86   -1372.8847        61216    19.869363    1.4017151    240.67785 
    1800    48.657379    3222.2655    2056.9527    188.25089    1165.3128    218.99814    1012.7613    244.00196            0   -737.26467     595289.7   -594862.89    881.40515    61091.861    19.603436    1.3287928     251.5247 
    1850    49.958312    3220.0295     2076.812     190.0684    1143.2175    183.50759    1037.2001     235.6887            0   -741.95684    595292.45   -594863.67    673.72086    61057.253    20.629488     1.225586    253.63944 
    1900    51.254017    3221.3076    2072.9656    189.71638    1148.3419    229.16066    1010.0972    238.74425            0   -761.89318    595295.54    -594863.3   -550.62602    61080.055    19.178439    1.1321586    253.69917 
    1950     52.55187    3231.4989    2010.0453    183.95795    1221.4537    226.17003    1046.0673    249.81116            0   -728.02405    595290.74   -594863.31   -805.41328    61010.078    19.385287     1.045289    245.70307 
    2000     53.84972    3248.9721    2025.8127    185.40097    1223.1594    203.84279    1065.1951    242.55997            0   -715.55189    595290.56   -594863.45    172.11409    60945.793    20.142868   0.97606643    247.40354 
Loop time of 53.8498 on 4 procs (4 MPI x 1 OpenMP) for 2000 steps with 4500 atoms

Pair  time (%) = 19.117 (35.5005)
Bond  time (%) = 4.30511 (7.99466)
Kspce time (%) = 8.89972 (16.5269)
Neigh time (%) = 0.407093 (0.755978)
Comm  time (%) = 0.281308 (0.522393)
Outpt time (%) = 0.00455397 (0.00845681)
Other time (%) = 20.835 (38.691)

Nlocal:    1125 ave 1167 max 1062 min
Histogram: 1 0 0 0 0 1 0 0 1 1
Nghost:    5488 ave 5555 max 5442 min
Histogram: 1 0 0 2 0 0 0 0 0 1
Neighs:    182834 ave 186289 max 175265 min
Histogram: 1 0 0 0 0 0 0 1 0 2

Total # of neighbors = 731336
Ave neighs/atom = 162.519
Ave special neighs/atom = 13.3333
Neighbor list builds = 36
Dangerous builds = 0
