LAMMPS (15 Jul 2015)
WARNING: OMP_NUM_THREADS environment is not set. (../comm.cpp:89)
  using 1 OpenMP thread(s) per MPI task
# 250 butane system for drude polarizability example (Nose-Hoover)

units real
boundary p p p

atom_style full
bond_style harmonic
angle_style harmonic
dihedral_style opls
special_bonds lj/coul 0.0 0.0 0.5

pair_style hybrid/overlay lj/cut/coul/long 8.0 8.0 thole 2.089 8.0
pair_modify mix geometric tail yes
kspace_style pppm 1.0e-4

read_data data.drude
  orthogonal box = (-19.1 -19.0999 -19.1) to (19.1 19.1 19.1)
  1 by 1 by 1 MPI processor grid
  reading atoms ...
  4500 atoms
  scanning bonds ...
  5 = max bonds/atom
  scanning angles ...
  6 = max angles/atom
  scanning dihedrals ...
  9 = max dihedrals/atom
  reading bonds ...
  4250 bonds
  reading angles ...
  6000 angles
  reading dihedrals ...
  6750 dihedrals
  5 = max # of 1-2 neighbors
  8 = max # of 1-3 neighbors
  12 = max # of 1-4 neighbors
  17 = max # of special neighbors

group gBUTANE molecule 1:250
4500 atoms in group gBUTANE
group gCORES type 1 2 3
3500 atoms in group gCORES
group gDRUDES type 4 5
1000 atoms in group gDRUDES

pair_coeff    1    1 lj/cut/coul/long 0.065997 3.500000 # C3H C3H
pair_coeff    1    2 lj/cut/coul/long 0.065997 3.500000 # C3H C2H
pair_coeff    1    3 lj/cut/coul/long 0.044496 2.958040 # C3H H
pair_coeff    2    2 lj/cut/coul/long 0.065997 3.500000 # C2H C2H
pair_coeff    2    3 lj/cut/coul/long 0.044496 2.958040 # C2H H
pair_coeff    3    3 lj/cut/coul/long 0.029999 2.500000 # H H
pair_coeff    *  4*5 lj/cut/coul/long 0.000000 0.000000 # No lj for drudes
pair_coeff    1    * thole 1.368000
pair_coeff    2    * thole 1.368000
pair_coeff    4    * thole 1.368000
pair_coeff    5    * thole 1.368000

neighbor 2.0 bin

variable vTEMP   equal 260.0
variable vTEMP_D equal 1.0
variable vPRESS  equal 1.0

velocity gCORES  create ${vTEMP} 12345
velocity gCORES  create 260 12345
velocity gDRUDES create ${vTEMP_D} 12345
velocity gDRUDES create 1 12345

fix fDRUDE all drude 1 1 0 2 2

fix fSHAKE gCORES shake 0.0001 20 0 b 2 4
  0 = # of size 2 clusters
  500 = # of size 3 clusters
  500 = # of size 4 clusters
  0 = # of frozen angles

compute cTEMP_DRUDE gDRUDES temp
compute cTEMP_DRUDE_DRUDE gDRUDES temp/drude
compute cTEMP_CORE gCORES temp/com

fix fDIRECT all drude/transform/direct
fix fNPT gCORES npt temp ${vTEMP} ${vTEMP} 100.0 iso ${vPRESS} ${vPRESS} 500.0
fix fNPT gCORES npt temp 260 ${vTEMP} 100.0 iso ${vPRESS} ${vPRESS} 500.0
fix fNPT gCORES npt temp 260 260 100.0 iso ${vPRESS} ${vPRESS} 500.0
fix fNPT gCORES npt temp 260 260 100.0 iso 1 ${vPRESS} 500.0
fix fNPT gCORES npt temp 260 260 100.0 iso 1 1 500.0
fix_modify fNPT temp cTEMP_CORE press thermo_press
WARNING: Temperature for fix modify is not for group all (../fix_nh.cpp:1349)
fix fNVT gDRUDES nvt temp ${vTEMP_D} ${vTEMP_D} 100.0
fix fNVT gDRUDES nvt temp 1 ${vTEMP_D} 100.0
fix fNVT gDRUDES nvt temp 1 1 100.0
fix fINVERSE all drude/transform/inverse

fix fMOMENTUM all momentum 100 linear 1 1 1

thermo_style custom step cpu etotal ke temp pe ebond eangle edihed eimp evdwl ecoul elong press vol c_cTEMP_DRUDE c_cTEMP_DRUDE_DRUDE c_cTEMP_CORE
thermo 50

timestep 0.5
run 2000
PPPM initialization ...
  G vector (1/distance) = 0.367867
  grid = 36 36 36
  stencil order = 5
  estimated absolute RMS force accuracy = 0.031354
  estimated relative force accuracy = 9.44215e-05
  using double precision FFTs
  3d grid and FFT values/proc = 79507 46656
Rebuild special list taking Drude particles into account
Old max number of 1-2 to 1-4 neighbors: 17
New max number of 1-2 to 1-4 neighbors: 17 (+0)
Neighbor list info ...
  2 neighbor list requests
  update every 1 steps, delay 10 steps, check yes
  master list distance cutoff = 10
Memory usage per processor = 20.0348 Mbytes
Step CPU TotEng KinEng Temp PotEng E_bond E_angle E_dihed E_impro E_vdwl E_coul E_long Press Volume cTEMP_DR cTEMP_DR cTEMP_CO 
       0            0    6535.5187      2714.74    248.45112    3820.7787    3724.3278    140.75328    1.4735401            0   -518.77975    595169.42   -594696.41    -353319.1    55742.797            1    19.770966    341.28048 
      50     4.844502    3170.4168    1929.6689    176.60196    1240.7479    855.64091    668.01143    115.06625            0   -799.35441    595243.09   -594841.71    1724.8701    56248.701    154.59876    159.70179    184.91335 
     100    9.2058499    2482.4931    1828.3276    167.32728    654.16545    363.58878    696.97167    162.17285            0   -1011.0545    595307.07   -594864.58    141.55265    57219.514    76.081738    69.541551     201.5849 
     150    13.532696    2306.1154    1771.5619    162.13212     534.5535    237.82308    696.85973    156.42511            0   -980.61107    595290.61   -594866.55    3518.9498    57980.609    40.949898    28.685375    207.60631 
     200    17.842664    2253.5343    1704.8037    156.02246    548.73059    240.06279    716.68755    155.67882            0   -993.69431    595297.43   -594867.44    903.28414    58727.085    30.796246    16.567553    203.01121 
     250    22.121821    2265.2502    1705.1842    156.05728    560.06593    185.79252    829.59879    153.94622            0    -1036.966    595295.24   -594867.55   -179.28448     59346.61    26.198735    10.533719    204.78203 
     300    26.390061    2307.2458    1808.8576     165.5454    498.38815    148.05724    785.92202    138.20032            0   -1004.0081    595298.22      -594868    1769.0497    59732.531    24.126265    6.9362933    218.60594 
     350    30.638792    2349.1858    1731.3382    158.45088    617.84759    193.65235    812.63438    152.90312            0   -964.31706    595290.12   -594867.14    1904.3108    60115.832    22.013492    4.9776092     209.6422 
     400    34.861379    2402.7386    1789.3694    163.76185    613.36922    184.29408    828.39253    174.51857            0   -1003.8089    595297.01   -594867.04   -595.05432    60532.605    21.825661    3.2932517    217.01601 
     450    39.079958    2464.3639    1749.5701    160.11945    714.79383    138.72174    955.25702    167.06104            0   -971.74182    595291.63   -594866.13   -324.57538    60736.467    21.114143    2.6024593     212.2734 
     500    43.291456     2523.864    1848.5448    169.17754    675.31914    191.67183    823.06964    160.85287            0   -923.36348    595289.48   -594866.39    2887.3488    60833.607    20.976027    2.0913911    224.78168 
     550    47.488393    2583.8891    1725.6333    157.92876    858.25586    183.84178    1012.9403    173.79131            0   -936.49957    595290.43   -594866.25    864.81756    61065.349    18.864135     1.623061     210.1045 
     600    51.675568    2646.1127    1703.6389    155.91586    942.47374    180.92072    1095.6797    175.69454            0   -936.17882    595292.07   -594865.71    591.47172    61188.226    19.503632    1.3107996    207.09691 
     650    55.853759    2708.2725     1852.907    169.57677    855.36552    173.82875    972.23163    170.13627            0   -882.53474    595287.54   -594865.84    2704.1974    61165.695    21.069846    1.1096104    225.29562 
     700    59.986151    2766.0677    1795.0148    164.27852    971.05285     188.3648    1045.7479    184.91307            0    -871.8744    595289.62   -594865.72   -30.068505    61285.288    19.713199   0.98253897    218.51824 
     750    64.165014    2826.7101    1932.7531    176.88423    893.95697    178.95498    986.49974    189.66911            0   -892.61549    595297.61   -594866.17   -198.88985    61374.037    21.468501   0.86400274    235.19502 
     800    68.317819    2885.1327    1817.8966    166.37264    1067.2361    200.73937    1068.2393    198.84892            0   -830.21377       595296   -594866.38    5.1599825    61322.108    20.041334   0.77609148    221.27492 
     850    72.476939    2941.1701    2014.1588    184.33442    927.01131    196.43513    949.87583    173.96107            0   -821.78374    595294.74   -594866.22   -1489.5581    61348.933    22.121483   0.73819143    245.19527 
     900    76.580068    2994.8933    1973.2318    180.58881    1021.6615    207.08352    1044.7484    183.74583            0   -849.17232    595301.15   -594865.89   -1862.3967     61448.63    20.281146   0.68998629    240.73419 
     950    80.737815     3043.913    1941.7308    177.70585    1102.1823    240.08031    1061.0085     193.7969            0   -826.50124    595299.94   -594866.15   -1653.7067    61430.167    21.954532   0.67949511    236.14245 
    1000     84.87137    3090.5425       2035.9    186.32416    1054.6425    182.23679     1031.647    186.69632            0   -774.78481    595294.68   -594865.83    449.43732    61358.338    21.819689   0.66307761    248.04457 
    1050    88.991321    3131.4696    2083.1417    190.64769     1048.328    220.93124    1019.5504    189.05082            0    -812.8742    595297.06   -594865.39   -831.50756    61436.197    22.163152   0.68501046    253.86137 
    1100     93.09825     3167.755    2059.5958    188.49278    1108.1592     232.2213    1050.8541    206.61183            0   -813.07888    595296.83   -594865.28   -1541.0025    61453.997    21.212503   0.67836885     251.2542 
    1150     97.20301    3200.6021    2119.2366    193.95106    1081.3656    192.25301    1007.9568    206.04103            0   -752.07336    595292.23   -594865.04    788.53954    61363.923    22.364606   0.74159019    258.32847 
    1200    101.31353    3229.6945    2001.0805     183.1375     1228.614    229.90153    1117.9115     213.6224            0   -761.57365    595293.66   -594864.91   -694.07898    61430.144    21.626803   0.77648766    243.73484 
    1250    105.42222    3255.1843    2140.7268    195.91783    1114.4575    173.78656    1068.9044    230.71563            0   -791.77347    595297.67   -594864.84   -1200.1291    61501.439    21.595524   0.81790117    261.32126 
    1300    109.52761    3277.6444    2121.1181    194.12326    1156.5263    213.43523     1039.362    237.38677            0   -759.73033    595289.98   -594863.91   -414.14261    61453.777    22.986574   0.92711676     258.3322 
    1350    113.62753     3294.866    2092.5108    191.50514    1202.3552    203.94581    1107.6264    224.16581            0   -758.91887    595289.31   -594863.77    95.343361    61463.676    21.176833   0.97497502    255.41015 
    1400    117.73187     3304.579    2228.8813    203.98568    1075.6976    183.46472    1041.7887    226.55188            0   -804.44866    595292.23   -594863.89    917.98109    61516.214    23.096735    1.1296453    271.85313 
    1450    121.82055    3304.1869    2070.9431    189.53128    1233.2438    193.56273    1157.3605    228.71717            0   -770.29916    595287.21   -594863.31    556.16738    61468.353    21.912988    1.2089953    252.41992 
    1500    125.94952    3299.9077    2105.7955    192.72095    1194.1123    202.62602    1089.2283    226.46295            0   -744.12769    595282.88   -594862.96    2128.4534    61398.216    22.469165    1.2967433     256.5977 
    1550    130.04177    3288.4125     2076.755    190.06318    1211.6575    178.42979    1154.2804     230.7819            0   -777.53707    595289.03   -594863.33     1437.326    61454.639    22.279545    1.4230147    253.01391 
    1600     134.1331     3275.187    1980.1566    181.22256    1295.0304     228.3235    1182.6186    235.68149            0   -777.07536    595288.58   -594863.09   -156.85574     61460.18    20.260246    1.4208186    241.61356 
    1650    138.21625     3259.884    2018.7504    184.75464    1241.1337    226.47975    1104.8763    220.59194            0   -734.38394    595286.57      -594863    1552.5024     61372.69    20.821242    1.4893074    246.26047 
    1700    142.31432    3243.6269    2101.2737    192.30711    1142.3532    159.68313    1083.4457     228.7046            0   -757.36812    595291.17   -594863.28   -189.03362    61425.574    21.336818    1.5230568    256.45289 
    1750    146.41462    3230.4977    1988.4523    181.98178    1242.0454    236.82721    1092.5758    241.93293            0   -757.83204     595291.6   -594863.06   -925.99051    61460.594    21.415649    1.4603623    242.22451 
    1800    150.49303    3222.9102    2060.6346    188.58786    1162.2755    204.49993     1030.708    227.95598            0   -726.34926    595288.76    -594863.3    713.14523    61398.911    20.811921    1.4006534    251.53505 
    1850    154.57223    3220.3571    2055.6635     188.1329    1164.6936    187.85055    1065.8013    225.28806            0   -740.48844    595289.56   -594863.32    738.60127      61427.7    20.683458     1.278624    250.95758 
    1900    158.65821    3221.9334    2063.5815    188.85755    1158.3519     231.2236    1036.3537    222.70252            0   -761.08566    595292.14   -594862.98   -263.57475    61508.648    20.796736    1.2465442    251.91179 
    1950    162.72872    3228.0629    2053.0918    187.89755    1174.9711    199.92962    1049.1234    236.60819            0   -737.75193    595290.27   -594863.21   -388.08241    61492.815    21.098368    1.1232689     250.4786 
    2000     166.8051    3238.3168    2047.6639    187.40078     1190.653    188.43524    1060.0957    232.27886            0   -718.24285    595291.36   -594863.28    743.94448    61479.153    20.760956    1.0755587    249.92189 
Loop time of 166.805 on 1 procs (1 MPI x 1 OpenMP) for 2000 steps with 4500 atoms

Pair  time (%) = 57.2225 (34.305)
Bond  time (%) = 17.1719 (10.2946)
Kspce time (%) = 21.8658 (13.1086)
Neigh time (%) = 1.5477 (0.927847)
Comm  time (%) = 0.137161 (0.0822284)
Outpt time (%) = 0.00560427 (0.00335977)
Other time (%) = 68.8546 (41.2784)

Nlocal:    4500 ave 4500 max 4500 min
Histogram: 1 0 0 0 0 0 0 0 0 0
Nghost:    9029 ave 9029 max 9029 min
Histogram: 1 0 0 0 0 0 0 0 0 0
Neighs:    724825 ave 724825 max 724825 min
Histogram: 1 0 0 0 0 0 0 0 0 0

Total # of neighbors = 724825
Ave neighs/atom = 161.072
Ave special neighs/atom = 13.3333
Neighbor list builds = 37
Dangerous builds = 0
