LAMMPS (15 Jul 2015)
WARNING: OMP_NUM_THREADS environment is not set. (../comm.cpp:89)
  using 1 OpenMP thread(s) per MPI task
units real
boundary p p p

atom_style full
bond_style harmonic
angle_style harmonic
dihedral_style opls
special_bonds lj/coul 0.0 0.0 0.5

pair_style hybrid/overlay lj/cut/coul/long 8.0 8.0 thole 2.600 8.0
kspace_style pppm 1.0e-4

read_data data.ethanol
  orthogonal box = (-14.0138 -14.0278 -14.0189) to (14.0169 14.0177 14.0857)
  1 by 2 by 2 MPI processor grid
  reading atoms ...
  3000 atoms
  scanning bonds ...
  5 = max bonds/atom
  scanning angles ...
  6 = max angles/atom
  scanning dihedrals ...
  9 = max dihedrals/atom
  reading bonds ...
  2750 bonds
  reading angles ...
  3250 angles
  reading dihedrals ...
  3000 dihedrals
  5 = max # of 1-2 neighbors
  6 = max # of 1-3 neighbors
  10 = max # of 1-4 neighbors
  11 = max # of special neighbors


pair_coeff    1    1 lj/cut/coul/long 0.065997 3.500000 # C3H C3H
pair_coeff    1    2 lj/cut/coul/long 0.065997 3.500000 # C3H CTO
pair_coeff    1    3 lj/cut/coul/long 0.044496 2.958040 # C3H H
pair_coeff    1    4 lj/cut/coul/long 0.105921 3.304542 # C3H OH
pair_coeff    1    5 lj/cut/coul/long 0.000000 0.000000 # C3H HO
pair_coeff    2    2 lj/cut/coul/long 0.065997 3.500000 # CTO CTO
pair_coeff    2    3 lj/cut/coul/long 0.044496 2.958040 # CTO H
pair_coeff    2    4 lj/cut/coul/long 0.105921 3.304542 # CTO OH
pair_coeff    2    5 lj/cut/coul/long 0.000000 0.000000 # CTO HO
pair_coeff    3    3 lj/cut/coul/long 0.029999 2.500000 # H H
pair_coeff    3    4 lj/cut/coul/long 0.071413 2.792848 # H OH
pair_coeff    3    5 lj/cut/coul/long 0.000000 0.000000 # H HO
pair_coeff    4    4 lj/cut/coul/long 0.169996 3.120000 # OH OH
pair_coeff    4    5 lj/cut/coul/long 0.000000 0.000000 # OH HO
pair_coeff    5    5 lj/cut/coul/long 0.000000 0.000000 # HO HO
pair_coeff    *  6*8 lj/cut/coul/long 0.000000 0.000000 # No lj for drudes
pair_coeff    1    1 thole 2.051000
pair_coeff    1    2 thole 1.580265
pair_coeff    1    4 thole 1.416087
pair_coeff    1    6 thole 2.051000
pair_coeff    1    7 thole 1.580265
pair_coeff    1    8 thole 1.416087
pair_coeff    2    2 thole 1.217570
pair_coeff    2    4 thole 1.091074
pair_coeff    2    6 thole 1.580265
pair_coeff    2    7 thole 1.217570
pair_coeff    2    8 thole 1.091074
pair_coeff    4    4 thole 0.977720
pair_coeff    4    6 thole 1.416087
pair_coeff    4    7 thole 1.091074
pair_coeff    4    8 thole 0.977720
pair_coeff    6    6 thole 2.051000
pair_coeff    6    7 thole 1.580265
pair_coeff    6    8 thole 1.416087
pair_coeff    7    7 thole 1.217570
pair_coeff    7    8 thole 1.091074
pair_coeff    8    8 thole 0.977720

group gETHANOL molecule 1:250
3000 atoms in group gETHANOL
group gATOMS type 1 2 3 4 5
2250 atoms in group gATOMS
group gDRUDES type 6 7 8
750 atoms in group gDRUDES


neighbor 2.0 bin

variable vTEMP   equal 300.0
variable vTEMP_D equal 1.0
variable vPRESS  equal 1.0

velocity gATOMS  create ${vTEMP} 12345
velocity gATOMS  create 300 12345
velocity gDRUDES create ${vTEMP_D} 12345
velocity gDRUDES create 1 12345

fix fDRUDE all drude 1 1 0 1 0 2 2 2

fix fSHAKE gATOMS shake 0.0001 20 0 b 2 3 5
  250 = # of size 2 clusters
  250 = # of size 3 clusters
  250 = # of size 4 clusters
  0 = # of frozen angles

compute cTEMP_DRUDE gDRUDES temp
compute cTEMP_DRUDE_DRUDE gDRUDES temp/drude
compute cTEMP_ATOM gATOMS temp


fix fDTDIR all drude/transform/direct
fix fNPT gATOMS npt temp ${vTEMP} ${vTEMP} 100 iso ${vPRESS} ${vPRESS} 500
fix fNPT gATOMS npt temp 300 ${vTEMP} 100 iso ${vPRESS} ${vPRESS} 500
fix fNPT gATOMS npt temp 300 300 100 iso ${vPRESS} ${vPRESS} 500
fix fNPT gATOMS npt temp 300 300 100 iso 1 ${vPRESS} 500
fix fNPT gATOMS npt temp 300 300 100 iso 1 1 500
fix_modify fNPT temp cTEMP_ATOM press thermo_press
WARNING: Temperature for fix modify is not for group all (../fix_nh.cpp:1349)
fix fNVT gDRUDES nvt temp ${vTEMP_D} ${vTEMP_D} 100.0
fix fNVT gDRUDES nvt temp 1 ${vTEMP_D} 100.0
fix fNVT gDRUDES nvt temp 1 1 100.0
fix fDTINV all drude/transform/inverse

thermo_style custom step cpu etotal ke temp pe ebond eangle edihed eimp evdwl ecoul elong press vol c_cTEMP_DRUDE c_cTEMP_DRUDE_DRUDE c_cTEMP_ATOM
thermo 20

timestep 0.5
run 2000
PPPM initialization ...
  G vector (1/distance) = 0.379738
  grid = 30 30 30
  stencil order = 5
  estimated absolute RMS force accuracy = 0.0289979
  estimated relative force accuracy = 8.73262e-05
  using double precision FFTs
  3d grid and FFT values/proc = 17908 7200
Rebuild special list taking Drude particles into account
Old max number of 1-2 to 1-4 neighbors: 11
New max number of 1-2 to 1-4 neighbors: 11 (+0)
Neighbor list info ...
  2 neighbor list requests
  update every 1 steps, delay 10 steps, check yes
  master list distance cutoff = 10
Memory usage per processor = 13.5474 Mbytes
Step CPU TotEng KinEng Temp PotEng E_bond E_angle E_dihed E_impro E_vdwl E_coul E_long Press Volume cTEMP_DR cTEMP_DR cTEMP_AT 
       0            0    13868.828    2013.3852    270.28772    11855.443     3145.896    51.880809 0.00019113234            0    8481.5109    514734.14   -514557.98    170217.61    22094.109            1    10.415166    385.76329 
      20   0.47908092    11385.192    5995.2334    804.83256    5389.9589    2039.7325    2312.5375     131.6961            0    1710.3266    514098.34   -514902.67    75867.639    22408.275    426.54395    419.43886    967.29283 
      40   0.99109006    9812.3727    6009.1747    806.70411     3803.198    1442.3489    1826.1439    275.19367            0    1288.2864    513934.98   -514963.76    48675.043    22980.115    266.38364    228.90855    1038.5547 
      60    1.4821379    8857.9452    5779.5973     775.8844     3078.348    1190.8978    1938.6134     328.6837            0    619.31805    513970.98   -514970.15    39710.611    23440.966    177.26139    137.51142    1032.6852 
      80    1.9772539    8115.7842    5997.9225    805.19356    2117.8617    901.84105    1587.5472    325.40763            0    288.34562    513957.43   -514942.71     37588.95    23834.833    136.32141    92.009307    1092.0949 
     100     2.409734    7496.2555    5770.3833    774.64747    1725.8722    829.63908    1420.6659     325.4016            0    62.343573    514051.62   -514963.79    27294.064    24225.918    104.14342    62.488759    1062.2302 
     120    2.9073999    6986.5933    5396.9479    724.51547    1589.6454    678.24993    1535.5197    325.88462            0   -9.6649715    514027.05    -514967.4    21720.902    24578.195     81.62454    44.121364    1000.2444 
     140    3.3670261    6549.0004    5126.6341    688.22709    1422.3663    724.95473    1477.7714    315.11964            0   -99.456489    513960.58    -514956.6    19747.305    24877.008    72.326724    32.001647    952.37666 
     160    3.8221109    6131.3313    5000.4421     671.2864    1130.8892    703.24856    1302.1192    314.93994            0    -258.4539    514042.28   -514973.25    23050.008    25142.654    63.511542     23.77829    931.94657 
     180    4.2752509    5749.9765    4700.9451     631.0803    1049.0314    674.94524    1301.4114    310.04938            0   -326.73679    514044.26    -514954.9    14225.484    25400.048    53.313821    17.894881    878.86656 
     200    4.7209101    5429.6012    4392.5738    589.68286    1037.0274    612.00109    1296.2432    303.16019            0   -300.38659     514093.7   -514967.69    10835.073    25622.866    45.858074    14.217213    822.91011 
     220    5.1211209    5133.8314    4290.7369    576.01173    843.09448     572.5199    1261.8055    289.99074            0   -383.71584     514078.3   -514975.81    12509.825    25814.229     42.31025    11.468112     804.8959 
     240       5.5123    4850.3859    4120.3634    553.13987     730.0225    553.79223    1263.6533    278.92141            0   -487.76524    514091.35   -514969.93    10891.878    25996.167    41.875023    9.6695796    772.40259 
     260     5.905493     4583.988    3911.0361    525.03865    672.95183    541.52258    1175.1553    273.43363            0   -475.23639    514139.68   -514981.61    8086.1508     26168.96    36.614317    7.7115675    734.50398 
     280    6.2907839    4349.2238    3692.2792    495.67153    656.94461    598.81909    1148.0997    278.87809            0   -444.09603    514045.38   -514970.13    5124.6371    26323.056     33.96495      6.69198    693.67834 
     300    6.6723161    4128.9011    3579.5067    480.53234    549.39444     584.0659     1089.513    267.69426            0   -456.87099    514043.55   -514978.56    8350.7748    26456.831    32.308444    5.4392347     672.7566 
     320    7.0407951    3913.7715    3456.9151    464.07498    456.85644    556.31985    1103.3901     263.8886            0   -485.54294    514000.27   -514981.47     9117.645    26592.844    29.993267     4.718969    650.23351 
     340    7.4158549    3712.7165    3258.4132    437.42702    454.30329    533.72422    1069.0449    271.85681            0   -454.53938    514001.97   -514967.75    7187.6789    26736.819    27.493556    4.0091824    613.22896 
     360     7.791574    3533.3831    3024.1004    405.97159    509.28269    522.55432    1104.3208    276.30864            0   -456.06652    514036.53   -514974.36    4554.9866    26876.658    24.864511    3.4118027     569.4108 
     380    8.1677721    3367.1791    2971.2717    398.87959    395.90735    508.27248    1059.2247    257.85692            0   -499.68504    514032.55   -514962.31    5645.8885    27002.069    23.474416    2.9232113    559.87293 
     400    8.5641069    3204.9102    2874.2407    385.85361    330.66952      543.884    1018.8809    231.07032            0   -519.33317    514029.07    -514972.9    7250.7314    27123.905    23.444802    2.6683676    541.27388 
     420    8.9899309    3050.6946    2776.6047    372.74643    274.08991    517.42853    953.07588    226.06762            0   -505.60561    514057.02    -514973.9     4026.258    27250.314     21.64667    2.4132413    523.31617 
     440    9.4134481    2916.2842    2640.2367    354.43965    276.04748    507.06285    983.97334    236.01271            0   -534.64347    514059.65   -514976.01    1708.7076    27364.195    21.060712    2.1444064    497.41008 
     460     9.832602     2787.525    2609.5902     350.3255    177.93484    485.64382    933.57906    234.95019            0   -560.61753    514069.83   -514985.45    3400.5283    27458.081    20.473632    1.8690528    491.78312 
     480    10.251109    2662.4983    2514.1778    337.51682     148.3205    464.67048     928.2622    239.37954            0   -570.38391    514070.86   -514984.47    5084.8137    27547.559    18.955121    1.6984706    474.13216 
     500    10.627579    2540.5544    2433.5504    326.69297    107.00399    473.29419    888.73276    239.40578            0   -565.68691    514057.33   -514986.07    3134.3575    27643.279    18.273271    1.5382149    458.95887 
     520    11.001842    2432.2068    2375.3395    318.87842    56.867315    460.28707    838.60936    229.00812            0   -579.13202    514093.74   -514985.64     468.2212    27732.471    17.970407    1.4242476      447.923 
     540    11.373545    2328.8171    2275.0598    305.41633    53.757301     473.0817    875.54202    220.60952            0   -604.11383    514075.79   -514987.16    2632.7729    27804.408    17.218704    1.3900289    429.01006 
     560     11.74319    2228.6146     2278.324    305.85454   -49.709377     455.5848    820.87873    215.10398            0   -604.72916    514052.45      -514989    3784.1433    27875.141    16.598569    1.1715769    429.90175 
     580    12.104738    2134.4153    2127.9966    285.67378     6.418699    480.68271    836.79983    219.13997            0   -563.30761    514019.28   -514986.18    1359.5795    27951.068    15.563765    1.1524486     401.5103 
     600    12.473055     2048.478    2102.9555    282.31212   -54.477504    486.30135    796.43014    225.04094            0   -574.89912    514003.04   -514990.39   -91.420338    28017.963    14.827132    1.0698444    397.02256 
     620    12.845292      1967.44    2048.4369    274.99325    -80.99691    477.38009    786.20772    223.98767            0   -570.14552    513997.92   -514996.35     1828.852    28070.312    14.682955    1.0560269    386.62699 
     640    13.204042    1888.1309    1981.5653    266.01604   -93.434406    482.74621    801.17707    222.68721            0   -557.43764    513952.32   -514994.92    3812.5405    28123.574     14.04603   0.95929546    374.07296 
     660    13.570566    1813.0614    1959.0076    262.98777   -145.94621    498.24936    750.64093    217.17501            0   -556.66175    513938.55    -514993.9    1151.2704    28187.531    13.576781   0.90632351    369.94707 
     680    13.927751    1744.8321    1911.6727    256.63328   -166.84059    497.04089    725.18698    211.02114            0   -553.89822     513944.3   -514990.49     108.9445    28245.999      13.7243   0.82900215    360.80449 
     700    14.295175    1678.1628     1915.389    257.13218   -237.22624    490.51443    719.69473    202.03683            0   -569.53274    513909.13   -514989.07    2213.2168    28294.676    13.493223   0.76588327     361.6163 
     720    14.660203     1612.159    1862.0857    249.97646    -249.9267    500.42186    728.44302     190.2785            0   -551.64436    513871.73   -514989.15    3052.5153    28347.921    12.852545   0.76640951    351.66644 
     740     15.01815     1549.912    1792.3564    240.61562   -242.44438    497.29156    738.60345    175.54129            0    -547.7015    513880.63   -514986.81    737.97658    28409.346     12.17893   0.72792619       338.58 
     760    15.383488    1493.1418    1799.8951    241.62766   -306.75333    503.57865    709.28516    169.31508            0   -559.17797    513862.16   -514991.92   -783.64904    28463.359    12.420695   0.68807653    339.92248 
     780    15.744096    1437.0356    1824.9946    244.99715     -387.959    510.43018    661.31998     170.2197            0   -556.60498    513818.25   -514991.58    1267.2099    28503.341     12.44623   0.70307247    344.72593 
     800    16.098093    1382.5837    1736.8044    233.15801   -354.22065    514.28158    697.39733    172.11237            0   -554.93413    513805.74   -514988.82    1744.7575    28543.482    11.437882   0.68681427     328.2418 
     820    16.459757    1332.0449    1690.9863    227.00714   -358.94137    509.37962    686.56323    172.95557            0   -552.94994    513815.42   -514990.31   -146.04099    28586.704    11.186651   0.61303048    319.56092 
     840    16.814758    1285.5293    1685.7656    226.30629   -400.23625    507.19659    662.75791    170.55111            0    -559.5183    513807.26   -514988.49   -690.12588    28621.306    11.781552    0.6184945    318.30476 
     860    17.176724    1239.7943    1704.6913    228.84697   -464.89697    495.88249    658.89516    170.34465            0   -574.82534    513772.88   -514988.07    747.30519    28645.706    11.731838   0.62507119    321.95623 
     880    17.529402    1195.2074    1673.5516    224.66662   -478.34417    498.99767    648.88222    170.51909            0   -557.50585    513743.81   -514983.05    1172.8191     28670.55    11.739131   0.58973111    315.98014 
     900    17.992377     1153.213    1639.9317     220.1533   -486.71872    502.48114    643.51414    178.70544            0   -556.38218     513730.3   -514985.34   -511.40662    28697.799    10.868615   0.57929749    309.90424 
     920    18.388113    1114.1622    1615.9735    216.93702   -501.81127     514.7973    630.19712     179.3982            0   -549.54237    513714.55   -514991.21    -1422.316      28716.8    10.772665   0.60281195    305.34986 
     940    18.794742    1076.2212    1626.9734    218.41371   -550.75226    512.58732    621.31396    171.70796            0   -553.00677    513686.03   -514989.39    298.59388    28723.942    10.713702   0.55978835    307.48502 
     960    19.190934    1040.0451    1613.5266    216.60854   -573.48149    511.51922    601.98585    170.02867            0   -546.21382    513682.83   -514993.63    795.90454    28731.424    10.661057    0.5984038     304.9283 
     980    19.600183    1005.5683    1568.0671    210.50581   -562.49882    514.83412    629.32638    175.23649            0   -544.55558    513654.63   -514991.97   -1246.8402    28741.467     10.61656   0.57513914    296.22769 
    1000    19.988786    973.43654    1565.2947    210.13362   -591.85814    505.31069    600.76156    165.13032            0   -554.93709    513685.33   -514993.45   -1299.6769    28742.033    10.609251   0.57568334    295.69903 
    1020    20.341465    942.30585    1571.1252    210.91634   -628.81931    506.25625    614.52982    152.39206            0   -569.20109    513660.58   -514993.37   -197.40138    28733.481    10.694613   0.58231489    296.78083 
    1040    20.690321    912.01118    1595.3373    214.16671   -683.32616    489.65166    569.71087    159.37841            0   -590.61264    513680.34    -514991.8     467.8096    28724.925    10.770918   0.57529033    301.39234 
    1060    21.048536    883.20635    1542.2363    207.03814   -659.02996    503.02658    589.43979    165.92415            0   -599.75711     513674.6   -514992.27   -2148.0784    28718.444    10.598813   0.61281264    291.28062 
    1080    21.397627    856.19688     1533.476    205.86212   -677.27914    507.92146    576.49892    168.14482            0   -578.48635     513634.3   -514985.66   -1762.3643    28699.157    10.693843   0.61504372     289.5596 
    1100    21.752637    831.36718    1484.0494    199.22681   -652.68218    514.09435    608.64804    163.13622            0   -567.49464    513613.56   -514984.63    33.441222     28670.69    10.372459   0.63223594     280.2166 
    1120    22.098428    808.52756    1520.8457    204.16656   -712.31817    513.70662    561.61909    163.36198            0   -559.46566    513591.68   -514983.22   -310.69178    28645.197    10.498085   0.63836402    287.22079 
    1140    22.453516    786.87445    1489.3947     199.9444   -702.52028    523.97711    584.65081    162.32286            0   -549.07998       513560   -514984.39    -1685.574    28620.442    10.418191   0.65946963    281.22232 
    1160    22.801671    766.64827    1508.2693    202.47822   -741.62101    514.35266    584.91055    152.45332            0     -535.165    513525.54   -514983.72   -1901.0493    28587.357    10.449832    0.6930013    284.82914 
    1180    23.160685    749.02928    1511.1172    202.86054   -762.08788    536.05747    571.22043    147.19144            0   -519.37083    513485.14   -514982.32    866.88063    28547.627    10.202456   0.73845527    285.48133 
    1200    23.511385    733.35099    1503.6268    201.85499   -770.27581    533.87098    589.37041    152.16808            0   -519.57804    513457.84   -514983.94    14.805399     28517.39    10.502689   0.75865808    283.91602 
    1220    23.868046    718.27504    1498.0867    201.11126   -779.81165    559.91487    564.18647    156.27378            0   -507.13199    513432.42   -514985.48   -1279.1075    28491.202    10.385637   0.77133469    282.90349 
    1240    24.216396     704.4507    1488.7649    199.85985   -784.31417    566.05166    579.79847    161.35046            0   -468.44357    513361.55   -514984.62     -53.3159    28461.135    10.737118   0.80131492    280.96493 
    1260    24.575723    693.03769    1494.1149    200.57807   -801.07721    573.62194     573.3094    158.43371            0   -453.27917    513333.62   -514986.78     977.9179    28434.863    10.542093   0.85501594    282.07465 
    1280    24.927264    683.35215    1479.0049    198.54962   -795.65277    580.54264    596.95031    153.53994            0   -437.44286    513297.62   -514986.86    808.24663    28418.774    10.329331   0.88658923    279.26749 
    1300    25.279538    675.21985    1490.3973      200.079    -815.1775    586.97926    575.85031    144.74048            0    -412.9591    513274.88   -514984.67   -448.16581     28409.96    10.611246   0.97474985    281.33196 
    1320    25.640119    668.22782    1489.1302    199.90889   -820.90236    576.19343    605.89694      140.779            0   -423.95547     513263.1   -514982.91   -40.766531    28400.261    10.614791   0.95325399    281.08739 
    1340    25.993063    662.60827    1506.0283    202.17738   -843.42002    580.70797     578.1842     144.8341            0   -430.96333    513260.37   -514976.56    977.60336    28392.015    10.691188    1.0390065    284.29593 
    1360    26.350135    658.23752    1527.6526    205.08035   -869.41511    577.91716    570.16602    152.14574            0   -451.11548    513260.04   -514978.56    374.82603    28390.744    10.868451    1.0652045    288.36783 
    1380    26.702816    654.96847    1486.4979    199.55551   -831.52939    580.08595    585.05597    157.33942            0   -437.07207    513264.24   -514981.18   -245.84993    28392.431    11.067275    1.1272898     280.3887 
    1400    27.054537     652.9829    1510.7519    202.81151   -857.76902     568.8718    573.40304    151.53282            0   -426.40132    513257.71   -514982.89   -48.059208    28392.645    10.839232    1.1642023    285.13858 
    1420    27.414745    652.00089    1494.6519    200.65015   -842.65097    571.38637    600.46686    145.25854            0   -443.09809    513270.44    -514987.1    744.84418    28392.941    10.707256    1.2312543    282.10691 
    1440    27.776937    651.93656    1520.3356    204.09807   -868.39904    569.20772    591.53184    144.73613            0   -452.45231    513268.58      -514990    462.47894    28397.996    11.307207     1.243356    286.77644 
    1460     28.12905     652.8797    1538.7905    206.57555   -885.91076      576.968     569.3361    144.29397            0   -461.95958       513278   -514992.55   -703.88926    28405.143    11.281448    1.3186377    290.32733 
    1480    28.486686    654.43984     1560.998    209.55681   -906.55813    573.32119    550.83703    151.55603            0   -471.87704     513285.3   -514995.69    -634.5939    28407.003    11.510698    1.3466763    294.48883 
    1500    28.838137    656.25668    1535.2085     206.0947   -878.95186     565.7821    581.34544    155.11099            0   -493.26681    513302.34   -514990.27    141.09795    28404.376    11.461415    1.3688576    289.56321 
    1520    29.197205    658.76245    1540.1255    206.75478   -881.36305    562.28162     566.2439    153.62339            0   -481.21787    513306.74   -514989.04    320.45957    28402.754    11.521974     1.432568    290.48041 
    1540    29.547566    662.13708    1524.8473    204.70375   -862.71024    547.98628    591.76817    150.15973            0   -460.97843     513297.6   -514989.25   -130.86158     28403.27    11.073845     1.460307    287.74178 
    1560    29.905875    666.19858    1506.8716    202.29059   -840.67298    559.57219    594.04584    156.75269            0   -475.69342    513317.61   -514992.96    -357.4244    28402.761     11.08164    1.4350882    284.29047 
    1580    30.255351    670.71346    1535.3958    206.11984   -864.68236    562.04024    577.64202    164.82634            0   -495.24757    513322.21   -514996.15    278.58466    28400.233    11.602308    1.4359704    289.53879 
    1600    30.605242    676.13061     1559.338    209.33397   -883.20743    570.25038    568.59163    172.20015            0    -497.5923    513299.59   -514996.24   -86.394917    28399.201    11.592402    1.4849853    294.13544 
    1620    30.964752    681.80099    1552.6868    208.44108   -870.88582    572.69475     589.3952    176.11924            0   -485.89655    513274.18   -514997.38   -1204.2981    28396.883    11.804715     1.535291    292.76874 
    1640    31.314686    687.72244    1565.9114    210.21642     -878.189    578.48421    587.25138    174.28163            0     -490.691    513265.29    -514992.8   -581.44816    28387.006    11.404568    1.4815399    295.47674 
    1660    31.672026    693.90688    1558.2867    209.19283   -864.37979    583.51938    605.39763    171.58103            0   -488.26355    513255.15   -514991.76    341.26177    28374.079    11.511139     1.530913    293.96858 
    1680    32.026984    699.81947    1608.5571     215.9414   -908.73759    585.45342    590.42357    171.65094            0   -478.75081    513211.28    -514988.8    77.131096    28364.346    11.356971    1.4640117    303.67707 
    1700    32.385771    705.27021     1587.164    213.06948   -881.89376    609.44479     581.8672     172.3033            0   -457.17018    513197.71   -514986.05   -666.39751    28355.734     12.32168    1.4041268    299.16048 
    1720    32.745074    710.00906    1608.1379    215.88513   -898.12885    612.49125    598.01777    167.03198            0   -445.09105    513154.85   -514985.42   -87.720392    28343.913    12.063048     1.502157    303.29429 
    1740    33.096442    714.53567    1580.0753    212.11786   -865.53967    624.57295    619.34825    165.15138            0   -426.77348    513138.14   -514985.98    1176.8164    28333.357    11.749436    1.4242741    298.04586 
    1760     33.45719    718.03805    1624.8218    218.12487   -906.78379    608.77029    596.31671     153.7484            0   -409.62158    513134.59   -514990.59     800.3654    28331.535    11.790945    1.4134737      306.611 
    1780    33.805393    720.37511    1609.0275    216.00455   -888.65236    640.15257    613.63079    151.83793            0   -394.53333    513087.34   -514987.08   -257.84624    28335.192     11.33893    1.3763986    303.77502 
    1800    34.161468     721.7956     1606.901    215.71908    -885.1054    621.86791    602.54827    163.37359            0    -396.5738    513111.86   -514988.19    600.83028    28337.874      11.9832    1.3125825    303.09123 
    1820    34.509176     722.6791    1563.6639     209.9147   -840.98481    658.28036    609.55302    175.97253            0   -386.62661    513087.76   -514985.92    1673.6509    28345.014     11.52662     1.266202    294.99337 
    1840    34.858474    723.36526    1560.0643    209.43147   -836.69905    621.56238     639.2919    183.25684            0   -391.12333     513097.3   -514986.98    948.98786    28362.795    11.736427    1.2283813    294.21307 
    1860    35.219517    724.34062    1560.3485    209.46963   -836.00792    648.95076    621.00344    183.45409            0   -412.61997    513112.89   -514989.69   -494.41519    28385.176    11.423896    1.2369988    294.40143 
    1880    35.571319    725.55016    1589.2514    213.34971   -863.70126     617.1181    598.13412    185.78351            0   -430.81566    513151.32   -514985.25    301.61577    28403.364     11.34178    1.1618324    299.98052 
    1900    35.931503     726.4494    1555.4145    208.80726   -828.96513    616.25066    631.90687    175.77829            0   -439.44651     513173.5   -514986.96    1079.4893    28422.072    11.390428    1.1703115    293.46936 
    1920    36.278118      727.328    1577.4105    211.76012   -850.08251    606.30559    616.55697    170.46944            0   -442.17245    513181.84   -514983.08    4.4471417    28445.679    11.611097    1.1000004    297.59395 
    1940    36.633091    728.19228    1574.1105     211.3171   -845.91818    625.03022    624.89302    167.86917            0   -451.74938    513172.29   -514984.25   -891.08022     28467.03    11.074816    1.0595944    297.19063 
    1960    36.984206    728.61768    1624.4163    218.07043   -895.79862    599.93561    599.92993    167.38843            0   -465.99755    513188.14    -514985.2   -216.32489    28480.762     12.12343    1.0318861    306.39083 
    1980    37.341046    727.92162    1627.8345    218.52931   -899.91293    612.92861    601.82319    165.16403            0   -447.59836    513151.59   -514983.82    865.41931    28491.981    11.828357    1.0066239    307.17285 
    2000     37.68905    726.10625    1615.3704    216.85607   -889.26418    609.59944    604.55036    169.50136            0   -443.24252    513152.61   -514982.28   -436.06261    28506.736    11.476194   0.91727299     304.9329 
Loop time of 37.6891 on 4 procs (4 MPI x 1 OpenMP) for 2000 steps with 3000 atoms

Pair  time (%) = 14.1206 (37.466)
Bond  time (%) = 2.00892 (5.33025)
Kspce time (%) = 6.06091 (16.0813)
Neigh time (%) = 0.607776 (1.6126)
Comm  time (%) = 0.454351 (1.20552)
Outpt time (%) = 0.00870317 (0.023092)
Other time (%) = 14.4278 (38.2812)

Nlocal:    750 ave 774 max 711 min
Histogram: 1 0 0 0 0 0 1 0 1 1
Nghost:    5796.5 ave 5864 max 5731 min
Histogram: 1 0 0 1 0 0 1 0 0 1
Neighs:    165579 ave 169096 max 157793 min
Histogram: 1 0 0 0 0 0 0 0 1 2

Total # of neighbors = 662315
Ave neighs/atom = 220.772
Ave special neighs/atom = 10.5
Neighbor list builds = 63
Dangerous builds = 0
