LAMMPS (8 Jul 2015)
units real
boundary p p p

atom_style full
bond_style harmonic
angle_style harmonic
dihedral_style opls
special_bonds lj/coul 0.0 0.0 0.5

pair_style hybrid/overlay lj/cut/coul/long 8.0 8.0 thole 2.600 8.0
kspace_style pppm 1.0e-4

read_data data.ethanol
  orthogonal box = (-14.0138 -14.0278 -14.0189) to (14.0169 14.0177 14.0857)
  1 by 2 by 2 MPI processor grid
  reading atoms ...
  3000 atoms
  scanning bonds ...
  5 = max bonds/atom
  scanning angles ...
  6 = max angles/atom
  scanning dihedrals ...
  9 = max dihedrals/atom
  reading bonds ...
  2750 bonds
  reading angles ...
  3250 angles
  reading dihedrals ...
  3000 dihedrals
  5 = max # of 1-2 neighbors
  6 = max # of 1-3 neighbors
  10 = max # of 1-4 neighbors
  11 = max # of special neighbors


pair_coeff    1    1 lj/cut/coul/long 0.065997 3.500000 # C3H C3H
pair_coeff    1    2 lj/cut/coul/long 0.065997 3.500000 # C3H CTO
pair_coeff    1    3 lj/cut/coul/long 0.044496 2.958040 # C3H H
pair_coeff    1    4 lj/cut/coul/long 0.105921 3.304542 # C3H OH
pair_coeff    1    5 lj/cut/coul/long 0.000000 0.000000 # C3H HO
pair_coeff    2    2 lj/cut/coul/long 0.065997 3.500000 # CTO CTO
pair_coeff    2    3 lj/cut/coul/long 0.044496 2.958040 # CTO H
pair_coeff    2    4 lj/cut/coul/long 0.105921 3.304542 # CTO OH
pair_coeff    2    5 lj/cut/coul/long 0.000000 0.000000 # CTO HO
pair_coeff    3    3 lj/cut/coul/long 0.029999 2.500000 # H H
pair_coeff    3    4 lj/cut/coul/long 0.071413 2.792848 # H OH
pair_coeff    3    5 lj/cut/coul/long 0.000000 0.000000 # H HO
pair_coeff    4    4 lj/cut/coul/long 0.169996 3.120000 # OH OH
pair_coeff    4    5 lj/cut/coul/long 0.000000 0.000000 # OH HO
pair_coeff    5    5 lj/cut/coul/long 0.000000 0.000000 # HO HO
pair_coeff    *  6*8 lj/cut/coul/long 0.000000 0.000000 # No lj for drudes
pair_coeff    1    1 thole 2.051000
pair_coeff    1    2 thole 1.580265
pair_coeff    1    4 thole 1.416087
pair_coeff    1    6 thole 2.051000
pair_coeff    1    7 thole 1.580265
pair_coeff    1    8 thole 1.416087
pair_coeff    2    2 thole 1.217570
pair_coeff    2    4 thole 1.091074
pair_coeff    2    6 thole 1.580265
pair_coeff    2    7 thole 1.217570
pair_coeff    2    8 thole 1.091074
pair_coeff    4    4 thole 0.977720
pair_coeff    4    6 thole 1.416087
pair_coeff    4    7 thole 1.091074
pair_coeff    4    8 thole 0.977720
pair_coeff    6    6 thole 2.051000
pair_coeff    6    7 thole 1.580265
pair_coeff    6    8 thole 1.416087
pair_coeff    7    7 thole 1.217570
pair_coeff    7    8 thole 1.091074
pair_coeff    8    8 thole 0.977720

group gETHANOL molecule 1:250
3000 atoms in group gETHANOL
group gATOMS type 1 2 3 4 5
2250 atoms in group gATOMS
group gDRUDES type 6 7 8
750 atoms in group gDRUDES


neighbor 2.0 bin

variable vTEMP   equal 300.0
variable vTEMP_D equal 1.0
variable vPRESS  equal 1.0

velocity gATOMS  create ${vTEMP} 12345
velocity gATOMS  create 300 12345
velocity gDRUDES create ${vTEMP_D} 12345
velocity gDRUDES create 1 12345

fix fDRUDE all drude Core Core NoPol Core NoPol Drude Drude Drude

fix fSHAKE gATOMS shake 0.0001 20 0 b 2 3 5
  250 = # of size 2 clusters
  250 = # of size 3 clusters
  250 = # of size 4 clusters
  0 = # of frozen angles

compute cTEMP_ATOM gATOMS temp

fix fDTDIR all drude/transform/direct
fix fNPT gATOMS npt temp ${vTEMP} ${vTEMP} 100 iso ${vPRESS} ${vPRESS} 500
fix fNPT gATOMS npt temp 300 ${vTEMP} 100 iso ${vPRESS} ${vPRESS} 500
fix fNPT gATOMS npt temp 300 300 100 iso ${vPRESS} ${vPRESS} 500
fix fNPT gATOMS npt temp 300 300 100 iso 1 ${vPRESS} 500
fix fNPT gATOMS npt temp 300 300 100 iso 1 1 500
fix_modify fNPT temp cTEMP_ATOM press thermo_press
WARNING: Temperature for fix modify is not for group all (../fix_nh.cpp:1349)
fix fNVT gDRUDES nvt temp ${vTEMP_D} ${vTEMP_D} 100.0
fix fNVT gDRUDES nvt temp 1 ${vTEMP_D} 100.0
fix fNVT gDRUDES nvt temp 1 1 100.0
fix fDTINV all drude/transform/inverse temp

thermo_style custom step cpu etotal ke temp pe ebond eangle edihed eimp evdwl ecoul elong press vol f_fDTINV[1] f_fDTINV[2]
thermo 20

timestep 0.5
run 2000
PPPM initialization ...
  G vector (1/distance) = 0.379738
  grid = 30 30 30
  stencil order = 5
  estimated absolute RMS force accuracy = 0.0289979
  estimated relative force accuracy = 8.73262e-05
  using double precision FFTs
  3d grid and FFT values/proc = 17908 7200
Rebuild special list taking Drude particles into account
Old max number of 1-2 to 1-4 neighbors: 11
New max number of 1-2 to 1-4 neighbors: 11 (+0)
Neighbor list info ...
  2 neighbor list requests
  update every 1 steps, delay 10 steps, check yes
  master list distance cutoff = 10
Memory usage per processor = 13.5474 Mbytes
Step CPU TotEng KinEng Temp PotEng E_bond E_angle E_dihed E_impro E_vdwl E_coul E_long Press Volume fDTINV[1 fDTINV[2 
       0            0    13868.828    2013.3852    270.28772    11855.443     3145.896    51.880809 0.00019113234            0    8481.5109    514734.14   -514557.98    170217.61    22094.109    381.62315    10.078304 
      20   0.46469498    11385.192    5995.2334    804.83256    5389.9589    2039.7325    2312.5375     131.6961            0    1710.3266    514098.34   -514902.67    75867.639    22408.275    975.26848    406.07565 
      40   0.96043396    9812.3727    6009.1747    806.70411     3803.198    1442.3489    1826.1439    275.19367            0    1288.2864    513934.98   -514963.76    48675.043    22980.115    1057.0177    221.56359 
      60    1.4412398    8857.9452    5779.5973     775.8844     3078.348    1190.8978    1938.6134     328.6837            0    619.31805    513970.98   -514970.15    39710.611    23440.966    1050.9011    133.14424 
      80     1.928607    8115.7842    5997.9225    805.19356    2117.8617    901.84106    1587.5472    325.40763            0    288.34562    513957.43   -514942.71     37588.95    23834.833      1111.65    89.054921 
     100    2.3539889    7496.2552    5770.3833    774.64747    1725.8719    829.63908    1420.6659     325.4016            0    62.343573    514051.62   -514963.79    27294.064    24225.918    1080.2687    60.498472 
     120     2.785264    6986.5931    5396.9479    724.51547    1589.6453    678.24992    1535.5197    325.88462            0    -9.664971    514027.05    -514967.4    21720.902    24578.195    1016.3014    42.715632 
     140    3.2061119    6549.0006    5126.6341    688.22709    1422.3665     724.9547    1477.7714    315.11964            0    -99.45649    513960.58    -514956.6    19747.306    24877.008    969.51239    30.977084 
     160    3.6221669     6131.331    5000.4421    671.28639    1130.8889    703.24856    1302.1192    314.93994            0    -258.4539    514042.28   -514973.25    23050.007    25142.654    948.73049    23.021802 
     180       4.0286    5749.9765    4700.9451     631.0803    1049.0314    674.94525    1301.4113    310.04938            0   -326.73679    514044.26    -514954.9    14225.485    25400.048    893.75892    17.322073 
     200    4.7165978    5429.6012    4392.5738    589.68286    1037.0274     612.0011    1296.2432     303.1602            0   -300.38659     514093.7   -514967.69    10835.073    25622.866    836.16806    13.764487 
     220    5.1577978    5133.8316    4290.7369    576.01173     843.0947     572.5199    1261.8055    289.99074            0   -383.71584     514078.3   -514975.81    12509.826    25814.229    817.78562    11.104635 
     240    5.5936198    4850.3856    4120.3634    553.13987    730.02226    553.79224    1263.6533    278.92141            0   -487.76525    514091.35   -514969.93    10891.877    25996.167    785.87197    9.3607758 
     260    6.0269358    4583.9877    3911.0361    525.03864    672.95156    541.52258    1175.1553    273.43363            0    -475.2364    514139.68   -514981.61    8086.1504     26168.96    746.55574    7.4653784 
     280    6.4498999    4349.2242    3692.2792    495.67153    656.94499    598.81907    1148.0997     278.8781            0   -444.09603    514045.38   -514970.13    5124.6377    26323.056    705.04251    6.4783453 
     300     6.832376    4128.9012    3579.5067    480.53233    549.39457    584.06589     1089.513    267.69428            0   -456.87099    514043.55   -514978.56     8350.774    26456.831     683.9437    5.2650988 
     320    7.2031679    3913.7718    3456.9151    464.07498    456.85678    556.31986    1103.3901    263.88861            0   -485.54295    514000.27   -514981.47    9117.6464    26592.844    660.74075     4.569413 
     340    7.5824358    3712.7162    3258.4132    437.42702    454.30297    533.72425    1069.0448     271.8568            0   -454.53939    514001.97   -514967.75    7187.6778    26736.819    622.98237     3.881293 
     360    7.9610488    3533.3833    3024.1003    405.97159    509.28296    522.55431    1104.3208    276.30866            0   -456.06653    514036.53   -514974.36    4554.9874    26876.658     578.3118    3.3031399 
     380     8.339788    3367.1795    2971.2717    398.87958     395.9078    508.27248    1059.2247    257.85696            0   -499.68506    514032.55   -514962.31    5645.8883    27002.069    568.38696    2.8305161 
     400    8.7092688    3204.9098    2874.2407    385.85362     330.6691    543.88404    1018.8809    231.07037            0   -519.33317    514029.07    -514972.9      7250.73    27123.905    549.89186    2.5832586 
     420    9.0878599    3050.6945    2776.6049    372.74646    274.08963    517.42868    953.07587    226.06763            0   -505.60559    514057.02    -514973.9    4026.2571    27250.314    531.28076    2.3360847 
     440     9.469878    2916.2842    2640.2373    354.43974    276.04686    507.06304    983.97335    236.01259            0   -534.64345    514059.65   -514976.01    1708.7066    27364.195    505.24998    2.0765962 
     460      9.84952    2787.5248    2609.5919    350.32573    177.93289    485.64405    933.57898    234.94957            0    -560.6175    514069.83   -514985.45    3400.5222    27458.081    499.48954    1.8097277 
     480    10.224069     2662.498    2514.1784    337.51691    148.31956    464.67041     928.2625    239.37952            0   -570.38384    514070.86   -514984.47    5084.8122    27547.559    481.26952    1.6441419 
     500    10.588065    2540.5547    2433.5496    326.69286    107.00508    473.29375    888.73298    239.40483            0   -565.68659    514057.33   -514986.07    3134.3746    27643.279    465.87922     1.489102 
     520    10.965397    2432.2064    2375.3375    318.87815    56.868949     460.2865    838.60975    229.00819            0   -579.13196    514093.74   -514985.64    468.23404    27732.471    454.76703    1.3789327 
     540    11.345479    2328.8167    2275.0591    305.41623    53.757635    473.08147    875.54248    220.60991            0   -604.11393    514075.79   -514987.16    2632.7617    27804.408    435.55764    1.3457269 
     560    11.725719    2228.6147    2278.3246    305.85461   -49.709832    455.58471    820.87895    215.10422            0   -604.72899    514052.45      -514989    3784.1364    27875.141    436.27432    1.1341627 
     580    12.095046    2134.4155    2127.9974    285.67388    6.4181666    480.68343    836.80003     219.1403            0   -563.30749    514019.28   -514986.18    1359.5715    27951.068    407.46404    1.1159342 
     600    12.470741    2048.4783    2102.9558    282.31216   -54.477543    486.30178    796.43076     225.0416            0   -574.89905    514003.04   -514990.39   -91.431367    28017.963    402.69784    1.0358253 
     620    12.845971    1967.4398    2048.4385    274.99346   -80.998689    477.38034    786.20749    223.98716            0   -570.14533    513997.92   -514996.35     1828.851    28070.312     392.2525    1.0223819 
     640    13.210954    1888.1309    1981.5655    266.01607    -93.43452    482.74572     801.1774     222.6858            0   -557.43755    513952.32   -514994.92    3812.5519    28123.574    379.47285   0.92887999 
     660    13.587361    1813.0607    1959.0057    262.98752   -145.94497    498.24812    750.64091    217.17303            0    -556.6605    513938.55    -514993.9    1151.3201    28187.531    375.17016   0.87738659 
     680    13.955084    1744.8314    1911.6747    256.63355   -166.84327    497.04079    725.18586    211.01812            0   -553.89833     513944.3   -514990.49    108.97391        28246    366.12869   0.80270475 
     700    14.332621    1678.1622    1915.3923    257.13262   -237.23006    490.51456    719.69455    202.03493            0   -569.53313    513909.13   -514989.07    2213.1986    28294.677    366.86758   0.74153647 
     720    14.709107    1612.1585    1862.0834    249.97614   -249.92487    500.42186    728.44333    190.27892            0   -551.64416    513871.73   -514989.15    3052.5074    28347.922    356.64794    0.7419894 
     740    15.074602    1549.9114    1792.3511    240.61491   -242.43971    497.29098    738.60491     175.5432            0   -547.70193    513880.64   -514986.81    737.96563    28409.347    343.29605   0.70476155 
     760    15.451436    1493.1412    1799.8942    241.62753   -306.75305    503.57806    709.28541    169.31509            0   -559.17806    513862.16   -514991.91   -783.64382     28463.36    344.75858   0.66626171 
     780    15.829368    1437.0364    1824.9975    244.99754   -387.96112    510.43056    661.31907    170.21781            0   -556.60478    513818.25   -514991.58    1267.2305    28503.342    349.56477    0.6806544 
     800    16.199078    1382.5836    1736.8014    233.15762   -354.21779    514.28236    697.39759    172.11239            0   -554.93395    513805.74   -514988.81     1744.741    28543.483    332.66405   0.66506829 
     820    16.579894    1332.0448    1690.9855    227.00704   -358.94069    509.38048    686.56123    172.95612            0   -552.94944    513815.42    -514990.3   -146.03728    28586.706    323.91167   0.59355245 
     840    16.949689    1285.5287    1685.7621    226.30582   -400.23341    507.19738     662.7582    170.54988            0   -559.51755    513807.26   -514988.49    -690.1089    28621.308    322.90812    0.5987012 
     860    17.327699    1239.7953    1704.6888    228.84665   -464.89356    495.88153    658.89582    170.34078            0   -574.82762    513772.89   -514988.07     747.3745    28645.708    326.53361   0.60527276 
     880    17.697159    1195.2072    1673.5419    224.66532   -478.33475    498.99698    648.88087    170.51904            0   -557.50499    513743.82   -514983.05    1172.8462    28670.552    320.57739   0.57094364 
     900    18.073851    1153.2142    1639.9152    220.15109   -486.70105    502.48538    643.51613    178.71385            0   -556.38141     513730.3   -514985.33   -511.36407    28697.802    314.13535   0.56093009 
     920    18.440287    1114.1664    1615.9187    216.92966   -501.75224    514.80341    630.19775    179.44232            0   -549.54171    513714.55    -514991.2   -1422.1575    28716.804    309.52544   0.58360443 
     940    18.817918    1076.2273    1626.8617    218.39872    -550.6344    512.59859    621.31531    171.79432            0   -553.00672    513686.05   -514989.38    298.78667    28723.947    311.64106   0.54204943 
     960    19.186372    1040.0624    1613.4639    216.60012   -573.40152     511.5336    601.98873     170.0414            0   -546.21638    513682.87   -514993.62    796.06719    28731.432    309.05664   0.57945348 
     980    19.578081     1005.579    1568.1217    210.51314   -562.54276    514.85026    629.33064    175.14094            0   -544.55701    513654.66   -514991.97   -1246.8764    28741.477    300.37418   0.55670739 
    1000      19.9724    973.45237    1565.4122     210.1494   -591.95985    505.33053    600.76467    165.05086            0   -554.93543     513685.3   -514993.47   -1299.7702    28742.045    299.85445   0.55742892 
    1020    20.346619    942.31829    1571.2544    210.93369   -628.93609     506.2582    614.50575    152.36039            0    -569.2051    513660.54    -514993.4    -197.3434    28733.494    300.97164   0.56388222 
    1040    20.720933    912.02299    1595.4096    214.17641   -683.38661    489.67231    569.71165    159.34215            0   -590.61745    513680.31   -514991.81    468.25234     28724.94    305.60522   0.55696339 
    1060    21.105233    883.21465    1542.3021    207.04698   -659.08747    503.06424    589.47481      165.898            0   -599.76442    513674.52   -514992.28   -2148.2693    28718.462    295.40881   0.59330413 
    1080    21.479384    856.19479    1533.5731    205.87514   -677.37826    507.98131    576.46543    168.07009            0    -578.4921    513634.24   -514985.65   -1762.9813    28699.175    293.73457    0.5953116 
    1100    21.850257     831.3584    1483.8322    199.19766   -652.47383      514.101    608.59062    163.21241            0   -567.49722     513613.7   -514984.58    34.184317    28670.705    284.19186   0.61226916 
    1120    22.212944    808.51674    1520.4919    204.11906   -711.97521    513.70303    561.58229    163.56789            0    -559.4514    513591.81   -514983.19   -310.56586    28645.215    291.21709   0.61816705 
    1140    22.585169    786.87664    1489.2523    199.92528   -702.37567    523.95348    584.58317    162.37825            0   -549.06052    513560.13   -514984.36   -1685.3517    28620.464    285.21969    0.6384457 
    1160    22.947533    766.66579    1508.3655    202.49114   -741.69966    514.38944    584.92249    152.28547            0   -535.16273    513525.55   -514983.69   -1899.1808    28587.386    288.86984   0.67084179 
    1180    23.318322    749.04185    1511.2897     202.8837   -762.24785    536.05773    571.19122    147.13739            0   -519.38506    513485.07   -514982.32    866.02729    28547.672    289.41158   0.71482717 
    1200    23.681094    733.35261    1503.7083    201.86594   -770.35574    533.91314    589.32958    152.30432            0   -519.56372    513457.62   -514983.96    12.391621    28517.444    287.94986   0.73430198 
    1220    24.060115    718.29207    1498.1389    201.11826   -779.84679     559.9431     564.1517    156.42782            0   -507.17056    513432.29   -514985.49   -1279.6644     28491.25    286.87668   0.74712731 
    1240    24.422321    704.47556     1488.546    199.83047   -784.07045    566.02949    579.83635    161.41643            0   -468.37865    513361.61   -514984.59   -51.686488    28461.174    285.02547   0.77569218 
    1260    24.792851    693.05238    1494.1999    200.58948   -801.14757    573.65881    573.30606    158.38062            0    -453.1335    513333.37   -514986.73    978.00364    28434.903    286.08714   0.82749271 
    1280    25.155311    683.36189    1479.1319    198.56667   -795.77001    580.65726    597.05327    153.67587            0   -437.40555    513297.05    -514986.8    806.07778    28418.815    283.18515   0.85877604 
    1300    25.518028    675.23225    1490.5298    200.09678   -815.29751    587.09462    575.82597    144.97028            0   -412.93308    513274.37   -514984.62   -448.38465    28409.989    285.33379   0.94361157 
    1320     25.89251    668.24576    1488.7456    199.85726   -820.49985    576.10023    605.79856     141.0771            0   -423.95889    513263.36   -514982.88   -39.862751    28400.279    285.00102   0.92201773 
    1340    26.258031    662.63636    1506.2889    202.21237   -843.65251    580.71487    578.00682    144.84587            0    -430.9697    513260.31   -514976.56    975.65095    28392.026    288.32808    1.0060722 
    1360    26.631899    658.27231    1527.3741    205.04295   -869.10174     577.9007    570.08076    151.88126            0   -451.08244    513260.63   -514978.52    377.78132     28390.74    292.35971    1.0304571 
    1380    26.997191    655.01285    1486.0976    199.50179   -831.08479    580.09755    584.98546     157.0687            0   -437.03714    513264.93   -514981.13   -241.83214    28392.431    284.42064    1.0917863 
    1400    27.362591    653.03333    1511.0105    202.84622   -857.97716    568.79858    573.46785    151.19854            0   -426.36044    513257.79   -514982.88   -42.941102    28392.678    289.18088    1.1282291 
    1420    27.738479    652.03522    1494.7456    200.66273   -842.71037    571.34496     600.2326     145.0969            0   -442.94166    513270.69   -514987.13    749.24473     28393.04    286.03527    1.1926054 
    1440    28.114251    652.00893    1520.3595    204.10129   -868.35062    569.03471    591.45979    144.74469            0   -452.27573    513268.76   -514990.08    464.23972    28398.182    290.94061    1.2040656 
    1460    28.479195    652.95958    1538.6929    206.56245   -885.73327    577.00564    569.61034    144.43231            0    -461.8858    513277.72   -514992.62   -700.59206    28405.421    294.42431    1.2760399 
    1480    28.852582    654.49448    1561.0643    209.56571   -906.56977    573.33072    550.59104     151.5819            0   -471.83544    513285.47   -514995.71   -632.62259    28407.379    298.70085     1.304296 
    1500    29.218084    656.32271    1535.2938    206.10614   -878.97107    565.83001    581.32018    155.10636            0   -493.44065    513302.47   -514990.26    135.75002    28404.846    293.75178    1.3248428 
    1520    29.635954    658.83142    1540.2034    206.76523   -881.37197    562.16815    565.92171     153.3928            0   -481.15516    513307.31   -514989.01    317.93491    28403.276    294.66645    1.3867082 
    1540     30.02465    662.18842    1524.5695    204.66646   -862.38112    547.90565    591.66907    149.79039            0   -460.81201    513298.28   -514989.21    -127.2967     28403.82    291.65789    1.4135777 
    1560     30.42324    666.29319    1506.6777    202.26456    -840.3845    559.51566    594.31491    155.91277            0   -475.55305    513318.25   -514992.82   -348.58478    28403.367    288.23837    1.3893227 
    1580    30.813571     670.8083    1535.6044    206.14783   -864.79605    562.13495     578.4644    163.30218            0   -495.27446    513322.66   -514996.08    275.30651    28400.935    293.78251    1.3920545 
    1600    31.204572    676.25185    1559.9879    209.42122   -883.73606    570.10578    568.92821    171.00876            0   -497.39153    513300.08   -514996.47   -73.514486    28399.985    298.43699    1.4385239 
    1620    31.594365    681.91416    1554.1958    208.64365    -872.2816    572.24207    588.61824    175.52375            0   -485.53135    513274.64   -514997.78   -1194.2337    28397.817    297.30384    1.4916708 
    1640    31.957021    687.77787    1566.4528     210.2891   -878.67495    577.60511     587.6365    174.08935            0   -490.32032    513265.42   -514993.11   -575.98097    28388.145    299.67716     1.436571 
    1660    32.328263     693.9447    1558.4532    209.21519   -864.50855    582.85778    605.59044     171.3838            0   -487.42612     513254.9   -514991.82    355.68023     28375.46     298.1242    1.4818962 
    1680    32.689834    699.86886    1608.5401    215.93913   -908.67127    585.36688    591.38699    170.43558            0   -477.98458    513210.74   -514988.62      63.2726    28366.017    307.75157    1.4221864 
    1700     33.06173    705.22129     1587.679    213.13861   -882.45767    608.77997    581.97998    171.15689            0   -456.37874     513198.5    -514986.5   -652.13299    28357.612    303.77873    1.3608116 
    1720     33.43244    709.90152    1606.9504    215.72572   -897.04889    611.82411    598.59789    167.41377            0   -444.75583    513155.69   -514985.82   -87.956807    28346.034    307.43218    1.4563219 
    1740    33.792807    714.28842    1578.1158    211.85481   -863.82742    622.94273    618.58409    166.94164            0   -425.90792    513140.18   -514986.57    1225.8141    28335.745    301.93568    1.3836274 
    1760     34.16269    717.83725    1625.0853    218.16024   -907.24806    607.46063    595.56505    155.05188            0   -409.33271    513135.21    -514991.2    808.11735    28334.434    310.94492    1.3717813 
    1780     34.52508    720.16545    1607.2079    215.76029   -887.04249     639.6191     616.2877    152.70112            0   -394.94068    513086.83   -514987.54   -249.44081    28338.652    307.53193    1.3387821 
    1800    34.897444    721.67107    1605.7802    215.56863   -884.10918    620.96441    600.98333    163.68644            0   -397.94203    513116.41   -514988.21    593.21891    28341.885    307.28685    1.2720045 
    1820    35.264084     722.6281    1563.5815    209.90363   -840.95336     657.3948    610.54083    175.28335            0   -387.18189    513088.35   -514985.34    1594.2014    28349.385    299.21899    1.2212634 
    1840    35.627381    723.30294    1557.1289    209.03741   -833.82598    621.11394    638.78199    183.49673            0   -389.88524    513098.81   -514986.14     995.3904    28367.077    297.99587    1.1889436 
    1860    35.997972      724.358    1555.2716    208.78807   -830.91358    650.54831      618.578    186.51619            0   -408.18627    513110.04   -514988.41   -491.07578    28389.582    297.63563    1.1987162 
    1880    36.360083    725.73924    1584.9908    212.77773   -859.25152    619.26077    600.38302    188.57707            0    -427.1487    513144.39   -514984.71    320.15676    28407.955    303.36943    1.1134055 
    1900    36.732394    726.87636    1562.2576    209.72592   -835.38128    618.79645    629.66414    175.71806            0   -439.43385     513166.8   -514986.93    1051.3691    28426.905    299.00296    1.1331738 
    1920    37.095146     727.8837    1582.3515    212.42342   -854.46777    608.33317    617.29369    170.67517            0   -440.63699    513172.31   -514982.45  -0.92523107    28450.579     302.8885    1.0550014 
    1940    37.467057    728.92965    1572.1109    211.04867   -843.18128    624.46392    623.38234    170.69675            0   -451.97017    513173.22   -514982.97   -885.80094    28471.966     300.9405    1.0196857 
    1960    37.829014    729.35382    1621.1703    217.63467   -891.81651    598.89696    600.96839    170.75979            0   -466.27547    513187.88   -514984.05   -315.59051    28485.662    310.35378   0.99990611 
    1980    38.200744    728.75646    1627.2858    218.45564   -898.52929    611.96623     599.6961    166.91418            0   -447.69711    513152.72   -514982.13    962.74312    28496.378    311.53795   0.97231237 
    2000    38.563872    727.13985    1615.5163    216.87565   -888.37648     612.6773    604.57286    170.03248            0   -440.62908    513145.64   -514980.67   -416.25453    28511.161    309.32031   0.88228887 
Loop time of 38.564 on 4 procs for 2000 steps with 3000 atoms

Pair  time (%) = 13.9242 (36.1068)
Bond  time (%) = 2.02022 (5.23863)
Kspce time (%) = 6.56873 (17.0333)
Neigh time (%) = 0.624387 (1.61909)
Comm  time (%) = 0.486738 (1.26216)
Outpt time (%) = 0.00694144 (0.0179998)
Other time (%) = 14.9327 (38.722)

Nlocal:    750 ave 774 max 711 min
Histogram: 1 0 0 0 0 0 1 0 1 1
Nghost:    5799.75 ave 5863 max 5734 min
Histogram: 1 0 0 1 0 0 1 0 0 1
Neighs:    165587 ave 169063 max 157807 min
Histogram: 1 0 0 0 0 0 0 0 1 2

Total # of neighbors = 662349
Ave neighs/atom = 220.783
Ave special neighs/atom = 10.5
Neighbor list builds = 63
Dangerous builds = 0
