LAMMPS (15 May 2015)
WARNING: OMP_NUM_THREADS environment is not set. (../comm.cpp:89)
  using 1 OpenMP thread(s) per MPI task
units real
boundary p p p

atom_style drude
bond_style harmonic
angle_style harmonic
dihedral_style opls
special_bonds lj/coul 0.0 0.0 0.5

pair_style hybrid/overlay lj/cut/coul/long 8.0 8.0 thole 2.600 8.0
kspace_style pppm 1.0e-4

comm_modify vel yes
read_data data.ethanol
  orthogonal box = (-14.0138 -14.0278 -14.0189) to (14.0169 14.0177 14.0857)
  1 by 1 by 1 MPI processor grid
  reading atoms ...
  3000 atoms
  scanning bonds ...
  5 = max bonds/atom
  scanning angles ...
  6 = max angles/atom
  scanning dihedrals ...
  9 = max dihedrals/atom
  reading bonds ...
  2750 bonds
  reading angles ...
  3250 angles
  reading dihedrals ...
  3000 dihedrals
  5 = max # of 1-2 neighbors
  6 = max # of 1-3 neighbors
  10 = max # of 1-4 neighbors
  11 = max # of special neighbors
Rebuild special list taking Drude particles into account
Old max number of 1-2 to 1-4 neighbors: 11
New max number of 1-2 to 1-4 neighbors: 11 (+0)


pair_coeff    1    1 lj/cut/coul/long 0.065997 3.500000 # C3H C3H
pair_coeff    1    2 lj/cut/coul/long 0.065997 3.500000 # C3H CTO
pair_coeff    1    3 lj/cut/coul/long 0.044496 2.958040 # C3H H
pair_coeff    1    4 lj/cut/coul/long 0.105921 3.304542 # C3H OH
pair_coeff    1    5 lj/cut/coul/long 0.000000 0.000000 # C3H HO
pair_coeff    2    2 lj/cut/coul/long 0.065997 3.500000 # CTO CTO
pair_coeff    2    3 lj/cut/coul/long 0.044496 2.958040 # CTO H
pair_coeff    2    4 lj/cut/coul/long 0.105921 3.304542 # CTO OH
pair_coeff    2    5 lj/cut/coul/long 0.000000 0.000000 # CTO HO
pair_coeff    3    3 lj/cut/coul/long 0.029999 2.500000 # H H
pair_coeff    3    4 lj/cut/coul/long 0.071413 2.792848 # H OH
pair_coeff    3    5 lj/cut/coul/long 0.000000 0.000000 # H HO
pair_coeff    4    4 lj/cut/coul/long 0.169996 3.120000 # OH OH
pair_coeff    4    5 lj/cut/coul/long 0.000000 0.000000 # OH HO
pair_coeff    5    5 lj/cut/coul/long 0.000000 0.000000 # HO HO
pair_coeff    *  6*8 lj/cut/coul/long 0.000000 0.000000 # No lj for drudes
pair_coeff    1    1 thole 2.051000
pair_coeff    1    2 thole 1.580265
pair_coeff    1    4 thole 1.416087
pair_coeff    1    6 thole 2.051000
pair_coeff    1    7 thole 1.580265
pair_coeff    1    8 thole 1.416087
pair_coeff    2    2 thole 1.217570
pair_coeff    2    4 thole 1.091074
pair_coeff    2    6 thole 1.580265
pair_coeff    2    7 thole 1.217570
pair_coeff    2    8 thole 1.091074
pair_coeff    4    4 thole 0.977720
pair_coeff    4    6 thole 1.416087
pair_coeff    4    7 thole 1.091074
pair_coeff    4    8 thole 0.977720
pair_coeff    6    6 thole 2.051000
pair_coeff    6    7 thole 1.580265
pair_coeff    6    8 thole 1.416087
pair_coeff    7    7 thole 1.217570
pair_coeff    7    8 thole 1.091074
pair_coeff    8    8 thole 0.977720

group gETHANOL molecule 1:250
3000 atoms in group gETHANOL
group gATOMS type 1 2 3 4 5
2250 atoms in group gATOMS
group gDRUDES type 6 7 8
750 atoms in group gDRUDES


neighbor 2.0 bin

variable vTEMP   equal 300.0
variable vTEMP_D equal 1.0
variable vPRESS  equal 1.0

velocity gATOMS  create ${vTEMP} 12345
velocity gATOMS  create 300 12345
velocity gDRUDES create ${vTEMP_D} 12345
velocity gDRUDES create 1 12345

fix fSHAKE all shake 0.0001 20 0 b 2 3 5
  250 = # of size 2 clusters
  250 = # of size 3 clusters
  250 = # of size 4 clusters
  0 = # of frozen angles

compute cTEMP_DRUDE gDRUDES temp
compute cTEMP_DRUDE_DRUDE gDRUDES temp/drude
compute cTEMP_ATOM gATOMS temp


fix fDTDIR all drude/transform/direct
fix fNPT gATOMS npt temp ${vTEMP} ${vTEMP} 100 iso ${vPRESS} ${vPRESS} 500
fix fNPT gATOMS npt temp 300 ${vTEMP} 100 iso ${vPRESS} ${vPRESS} 500
fix fNPT gATOMS npt temp 300 300 100 iso ${vPRESS} ${vPRESS} 500
fix fNPT gATOMS npt temp 300 300 100 iso 1 ${vPRESS} 500
fix fNPT gATOMS npt temp 300 300 100 iso 1 1 500
fix fNVT gDRUDES nvt temp ${vTEMP_D} ${vTEMP_D} 100.0
fix fNVT gDRUDES nvt temp 1 ${vTEMP_D} 100.0
fix fNVT gDRUDES nvt temp 1 1 100.0
fix fDTINV all drude/transform/inverse

thermo_style custom step cpu etotal ke temp pe ebond eangle edihed eimp evdwl ecoul elong press vol c_cTEMP_DRUDE c_cTEMP_DRUDE_DRUDE c_cTEMP_ATOM
thermo 20

timestep 0.5
run 2000
PPPM initialization ...
  G vector (1/distance) = 0.379738
  grid = 30 30 30
  stencil order = 5
  estimated absolute RMS force accuracy = 0.0289979
  estimated relative force accuracy = 8.73262e-05
  using double precision FFTs
  3d grid and FFT values/proc = 50653 27000
Neighbor list info ...
  2 neighbor list requests
  update every 1 steps, delay 10 steps, check yes
  master list distance cutoff = 10
Memory usage per processor = 17.0416 Mbytes
Step CPU TotEng KinEng Temp PotEng E_bond E_angle E_dihed E_impro E_vdwl E_coul E_long Press Volume cTEMP_DR cTEMP_DR cTEMP_AT 
       0            0    13868.828    2013.3852    270.28772    11855.443     3145.896    51.880809 0.00019113234            0    8481.5109    514734.14   -514557.98    170217.61    22094.109            1    10.473014    385.76329 
      20    1.8545799    11387.071     5998.259    805.23873     5388.812     2039.515    2312.2561    131.68769            0    1709.6213    514098.39   -514902.66    75850.126    22409.141    426.57332    419.44222    967.86058 
      40    3.5470641    9857.9283     6046.761    811.74991    3811.1672    1443.5478    1832.1789    275.53871            0    1288.4702    513935.17   -514963.74    48699.062    22981.674    266.76483    228.92281     1045.601 
      60    5.2184911    8956.9263    5856.3761    786.19161    3100.5502    1194.1965    1952.4522    329.38571            0    622.05594    513972.53   -514970.07    39826.791     23442.63    177.97887    137.53375     1047.105 
      80    6.8160241     8283.371    6129.7003    822.88412    2153.6707    905.34675    1609.9061    326.43196            0    294.22532    513960.02   -514942.26    37846.396    23837.248    137.52229    92.026873    1116.8572 
     100     8.439306    7736.6519     5957.953    799.82784    1778.6989    836.23111    1450.5554    326.98882            0    72.297394    514055.88   -514963.26    27619.265    24229.759    105.73256    62.502166    1097.5278 
     120     10.00714     7299.295    5632.8266    756.18111    1666.4684    684.76893    1581.5302    329.37102            0    5.8302559    514031.43   -514966.47     22158.16    24583.793     83.71689    44.164919    1044.5927 
     140    11.564016    6931.1938    5409.2401    726.16565    1521.9537    734.16662    1534.7426    318.94681            0   -78.363098    513968.25   -514955.79     20342.81    24884.973    74.910661    32.034925    1005.4773 
     160    13.111016     6580.111    5328.1024    715.27328    1252.0086    714.10736    1367.5632    319.51919            0   -232.85731       514056   -514972.32    23890.097    25154.301    66.421598    23.781002    993.54955 
     180    14.665648    6259.2169    5068.8803    680.47391    1190.3366    689.52923    1378.4228     316.0293            0   -300.63653     514059.6   -514952.61    14920.833    25416.937     56.27996    17.905983    948.17073 
     200    16.379941    5994.5295     4801.542    644.58497    1192.9875     627.2039    1387.2278    308.30144            0   -277.28751    514112.75   -514965.21    11389.285    25645.369    48.998352    14.279556    900.01033 
     220    17.892917    5748.3402    4730.4325    635.03885    1017.9076    587.61156    1356.2882    300.49755            0   -352.75295     514096.8   -514970.53    13428.719    25842.583    46.013277    11.516561    887.64902 
     240     19.36731      5510.39    4568.6954    613.32638    941.69459    570.65882     1372.204    294.58045            0   -453.80044    514122.16   -514964.11    11953.109    26031.924     45.78363    9.6846271    856.72424 
     260    20.837035    5286.0229    4381.3491      588.176    904.67379    559.74822    1287.0912    283.44192            0   -417.79822     514168.4    -514976.2     9326.569    26214.155    40.495895    7.7306445    823.05341 
     280    22.293094    5088.0955    4186.6728    562.04161    901.42261     628.1734     1278.073    286.74833            0   -385.68405    514057.09   -514962.98    6265.9596    26379.585    38.046572     6.681429    786.76106 
     300    23.747245    4900.0332    4091.1324    549.21574     808.9008    607.35992    1216.9132    285.40425            0   -387.28293    514058.21   -514971.71    9972.6112    26526.322    36.491433    5.4784991    769.10123 
     320    25.198629    4712.7312    3988.6781    535.46172     724.0531    582.68844    1236.1738    282.21187            0   -427.03584    514024.28   -514974.27    10580.313    26678.566    34.014978    4.7176431    750.50979 
     340    26.642576    4535.0912    3830.7488    514.26044    704.34234    552.87878     1218.298    282.87626            0   -412.97302    514022.21   -514958.95    8161.7273        26840    32.090312    4.0536234    721.04128 
     360    28.077537    4375.9458    3575.8414    480.04029    800.10439    538.50567    1263.8467    287.01374            0    -398.6729    514076.48   -514967.07    5826.0462    26995.991    28.843993    3.4700065    673.53719 
     380    29.516782    4228.9965    3490.7329    468.61486    738.26363    532.32011    1224.9637    281.56157            0    -432.4715    514087.47   -514955.58    7339.4493    27138.125    27.742538    2.9732141    657.68404 
     400    30.897043    4084.6504    3410.5956     457.8568    674.05474    562.88955    1204.3318    267.87682            0   -484.20306    514090.31   -514967.15    8232.6455    27278.891    27.628748    2.7698925    642.36147 
     420    32.311086    3947.2247    3398.7191    456.26244    548.50563    545.51883    1091.5547    256.69987            0   -462.48755    514084.48   -514967.26    4745.6733    27423.114    26.456581    2.4209041    640.58539 
     440    33.720849    3825.8289    3243.8794    435.47591    581.94953    542.63476    1155.7894    267.14704            0   -487.36602    514074.14    -514970.4    2156.1836    27551.508    25.479944    2.1745884     611.3035 
     460    35.130186    3708.1267    3180.2979     426.9404    527.82874    499.73558    1117.5384    254.81863            0   -484.94392    514120.62   -514979.94    5140.5044    27657.636    24.562205    1.9349565    599.50083 
     480    36.537724    3592.8212    3065.5883    411.54115    527.23293    495.25637    1137.3663    253.64573            0   -502.50717    514117.01   -514973.54    6721.2185    27763.984    22.634933    1.7353105    578.32348 
     500    37.908783    3481.1181    2970.8369    398.82122    510.28116    512.60204    1059.5182    266.93684            0   -478.20926    514122.49   -514973.06    4723.8231    27881.358    22.481776    1.5884022    560.21462 
     520    39.309983    3384.5167    2940.1763    394.70516    444.34044    493.63884    1017.6474    271.73969            0   -509.50795    514143.78   -514972.96    1864.8228    27994.626    22.005386    1.4434758    554.53755 
     540    40.701307    3291.4475    2808.7377    377.06015    482.70973    516.63637     1071.138    260.88169            0   -530.39309    514136.34    -514971.9    4429.4672    28091.695    21.124696    1.4147732    529.70321 
     560    42.100289    3199.3936    2809.3867    377.14726    390.00695    465.24743     1031.276    249.55641            0   -532.53435     514148.3   -514971.84    5691.3387    28191.417    19.959519    1.2054089    530.32666 
     580    43.457856    3113.3167    2661.7423    357.32668    451.57441    493.72892    1085.7519    254.50171            0   -521.44775    514113.03   -514973.99    1876.2686    28298.755    18.562949    1.1534085    502.60476 
     600    44.851225    3036.1001    2708.8592     363.6519      327.241    481.58168    989.68505    261.24651            0   -521.11485    514095.75   -514979.91    1311.0678     28392.37    19.103677    1.0958187    511.41078 
     620    46.238288    2961.8101    2641.4055    354.59656    320.40457    504.77508    962.55119    269.03113            0   -507.35125     514074.5    -514983.1    3041.1467    28471.377    18.710695    1.0332077    498.64065 
     640    47.586026    2887.5191     2565.995    344.47305    321.52411    510.75871     1009.053    272.14401            0   -497.33136    514002.57   -514975.67    4783.7274    28552.133    18.735313   0.95237151    484.16547 
     660    48.963635    2816.9696    2563.1414    344.08997    253.82817    509.40384    955.21037    265.15354            0   -498.33634     513998.9    -514976.5     2112.249    28642.873    18.440699   0.90726494    483.74428 
     680    50.354035    2752.3652    2521.4965    338.49933    230.86871    506.27841    964.11795     241.2065            0   -507.67227    514003.83   -514976.89    1295.5651    28726.823    17.938364   0.83386692    475.97141 
     700    51.694867    2687.7024    2537.4666    340.64324    150.23579    486.68491    958.95796    224.74519            0   -505.36021    513960.46   -514975.25    3380.6837    28801.581     18.58208   0.83176517    478.75899 
     720    53.065898    2623.5615    2461.9926    330.51121    161.56884    509.65476    950.78432    218.84757            0    -473.8742     513928.4   -514972.25    3607.1536    28881.419    17.340115   0.76961483    464.81404 
     740     54.43877    2563.1076    2418.0594    324.61337    145.04823    514.37438     949.4477    217.57278            0   -458.00104    513891.52   -514969.86    2258.5534    28967.652    17.147482    0.7173365    456.46961 
     760    55.776881    2509.4747    2399.7938    322.16131    109.68088    532.26064    912.69901    218.63678            0   -487.21076    513907.69    -514974.4    428.05202    29049.214    16.603233   0.69795192    453.19913 
     780    57.157225     2457.343    2418.7927    324.71181    38.550272     537.8046    879.18948    215.42839            0   -497.84868    513876.39   -514972.42    2167.7145    29117.719    17.003585   0.69112018    456.67189 
     800    58.514892    2405.9176    2336.6212    313.68066    69.296479    527.74058    913.59985    215.56087            0   -479.55478    513866.61   -514974.66    2614.3219    29185.863    16.317753   0.68773933     441.2041 
     820    59.837992    2357.4396    2303.7163    309.26334    53.723229    515.83922    922.10221    207.42727            0   -476.33629    513858.78   -514974.09    1059.0147    29256.822    15.668964   0.63108128     435.1704 
     840     61.19773    2313.4265     2291.659     307.6447    21.767526    529.43065    908.34802      205.569            0   -487.88663    513839.15   -514972.85     400.0657    29320.446     15.21767   0.60978667    433.05092 
     860    62.519089    2271.2971    2272.7747    305.10957   -1.4776235    515.95837    868.26807    206.52571            0   -465.89402    513849.16    -514975.5    2370.2841    29375.635    15.998222    0.6152914    429.09442 
     880    63.884496    2230.3762     2237.626    300.39102    -7.249754    513.60622    881.32363    195.59784            0   -455.97513    513831.07   -514972.87    3051.5919    29436.408    15.490139    0.6103559    422.57006 
     900    65.237797      2192.75    2195.6483    294.75571   -2.8982934    510.82982     885.3654    196.31323            0   -449.53739    513830.68   -514976.55    1000.0517    29505.224    15.167807   0.59675787    414.65628 
     920    66.558712    2159.9261    2156.3781    289.48386    3.5480126    519.68789    861.65669    207.62506            0   -448.67818    513838.26      -514975    498.69597    29568.138    14.377866   0.60790644    407.46206 
     940     67.90584     2129.657    2181.1532     292.8098   -51.496155    502.29125    851.69972    215.01548            0    -440.2343    513797.16   -514977.43    1874.5356    29623.502    14.808228   0.62593819    412.02991 
     960    69.235365    2100.7122    2202.9108    295.73066   -102.19852    510.07945    826.68468    222.11506            0   -472.78115    513796.61   -514984.91    2130.7088    29681.658     14.76062   0.62742441    416.22367 
     980    70.593541    2074.6591    2155.8232    289.40936   -81.164068    515.45108     841.7899    221.56082            0   -511.25536    513836.47   -514985.18   -442.67334    29742.341    14.107312   0.61615988    407.47148 
    1000     71.94445     2052.479    2132.7881    286.31701    -80.30906    490.39156    878.90247    219.31129            0   -530.01779    513848.96   -514987.86   -843.49303     29789.03    14.253779   0.60408676    402.99035 
    1020    73.291149    2031.9198    2114.2408    283.82712   -82.320985    490.98173    873.60566     223.1701            0   -530.80795    513844.63    -514983.9     1073.447    29821.893     14.22604   0.60761956    399.44464 
    1040    74.583003    2012.7056    2108.4931    283.05552   -95.787462    499.07453    812.22693    230.47167            0   -518.88852    513862.87   -514981.54    1284.5355    29855.994    14.428965   0.61890681    398.25525 
    1060     75.91454    1996.8929    2129.4083    285.86329   -132.51542    485.02377    795.18801    225.52468            0    -504.5418    513846.43   -514980.14   -22.141628    29892.844    14.120985   0.60895168    402.39893 
    1080     77.21617    1984.6878    2072.6703    278.24647   -87.982434    493.86824    826.65975    208.46616            0   -484.63452    513845.13   -514977.47    13.342366    29923.501    14.187672   0.64067246    391.48734 
    1100    78.534085    1975.4623    2058.3528    276.32442   -82.890529    507.16591    854.55817    200.00351            0   -486.52869     513819.4   -514977.49    1376.1099    29949.767    13.900433   0.61881927    388.86409 
    1120    79.833223    1968.5432    2100.7407     282.0148   -132.19756    507.21607    829.65421    190.22639            0   -494.23577    513814.43   -514979.49    833.17866     29981.04    14.221516     0.628716     396.8571 
    1140    81.157491    1964.3617    2106.8896    282.84025   -142.52787    499.90389    832.82029    196.40144            0   -488.42936     513795.5   -514978.73   -396.88427    30013.064    14.091723    0.6649941    398.09211 
    1160    82.480313    1962.7748    2076.2607    278.72847   -113.48593    497.99232    846.85111    207.13073            0   -480.78041    513787.77   -514972.45    69.934786    30037.454    14.342198   0.66998046    392.10986 
    1180    83.778027    1963.9084    2057.7799     276.2475     -93.8715    522.02853    815.24583    215.84498            0   -463.59478    513786.34   -514969.73    1275.2962     30058.92    13.985464   0.70107101    388.71777 
    1200    85.109528    1968.2012    2083.5579    279.70809   -115.35668    512.26825    850.58297    204.01527            0   -467.08513    513758.76    -514973.9    1178.3107    30086.188    14.370894     0.738875    393.49726 
    1220    86.407291    1975.6511    2086.5091    280.10427   -110.85802    516.83509     833.0356    195.31994            0   -459.48751    513777.44   -514974.01     852.0512    30118.411    14.622278    0.7527677    393.95568 
    1240    87.725112     1985.713    2094.3399    281.15551   -108.62684    527.82261    816.09939    186.84797            0   -437.52756    513765.53    -514967.4     959.5143    30152.678    14.219671   0.81112602    395.63012 
    1260    89.054538    1998.2994    2108.2353    283.02091   -109.93585    508.13508    867.24749    179.98273            0   -456.09689    513759.36   -514968.56    1279.8181    30189.313    14.744501   0.86451855    398.07068 
    1280    90.345425    2012.8402    2070.4563    277.94925   -57.616125     510.5202    876.83421    191.41437            0   -446.21084    513779.81   -514969.99    1492.7716    30230.662    13.832845   0.81720234    391.21463 
    1300    91.666192    2029.9725    2161.4268    290.16163   -131.45437    495.76577    838.04933    211.33692            0   -457.45394    513755.79   -514974.94    427.43143    30276.631    15.126924   0.90835335    408.10969 
    1320    92.963538    2050.1473     2107.441    282.91427   -57.293673    535.33572    868.25767    225.19838            0   -451.13645    513738.31   -514973.26   -124.49109    30319.126    14.838138    0.9842664    397.87822 
    1340    94.291841    2071.7608    2145.5394    288.02881   -73.778616    521.94546    886.50764    213.81135            0   -466.85633    513743.65   -514972.84    789.05949    30355.078    14.645535    1.0462531    405.26843 
    1360    95.592521    2094.3075    2124.5155    285.20645   -30.208015     541.6226    905.54704    197.89858            0   -464.18102    513762.42   -514973.51    1277.3926    30391.487    15.003397    1.0560783    401.08255 
    1380     96.91572    2117.9136    2195.8664    294.78498   -77.952788    514.71218    877.29282      183.912            0   -450.21413    513767.52   -514971.17    986.89013    30432.648    15.300306    1.0951285    414.64136 
    1400    98.211961    2142.3328    2218.0199    297.75899   -75.687164    521.99343    885.72243    187.73503            0   -449.70943    513752.83   -514974.26    74.007923    30475.042    15.435169    1.1134751    418.83292 
    1420    99.529228    2166.7334    2219.7109    297.98599   -52.977449    509.75174    900.79097    209.76367            0   -460.93986    513759.66      -514972    1170.8895    30513.307    14.920908    1.1544865    419.37749 
    1440    100.81422    2190.4686    2207.8196    296.38964   -17.351013    535.81172     907.4331     223.7495            0   -449.63199    513739.15   -514973.86    1419.4608    30555.152    15.545975    1.2727723    416.82892 
    1460    102.13912    2214.8444    2213.6464    297.17187    1.1980338    539.18409     919.7087    225.35735            0   -445.01012    513736.46    -514974.5    125.46216    30601.349    15.448671    1.2360619    417.98824 
    1480    103.43104    2238.6311    2275.7029    305.50267   -37.071801    536.18862    882.34969    216.25904            0    -439.0656    513742.41   -514975.22    699.05155    30643.698    15.832484    1.3324612    429.72707 
    1500    104.74642    2261.6547    2261.7943     303.6355  -0.13958935    540.47507    912.97292    218.09721            0   -448.73872     513750.3   -514973.25    496.44067    30684.471    15.595077    1.3546422    427.16089 
    1520    106.06541    2283.0673    2265.9926     304.1991    17.074771    517.41294    929.70535    215.42846            0   -447.03536    513769.67    -514968.1    1883.8389    30725.388    16.034676    1.3653431    427.77792 
    1540    107.34964    2303.2797    2257.2407     303.0242    46.039033    510.63063    931.90239    215.05518            0   -431.50081    513787.03   -514967.08    977.03121    30774.608    15.761764    1.3575654    426.21607 
    1560    108.66568    2323.5819    2250.8772    302.16993    72.704684    525.30426    981.02087    209.57929            0   -439.07057    513765.66   -514969.79    523.63648    30825.489    15.874921    1.4420572    424.94702 
    1580     109.9562      2342.25    2342.1623    314.42454   0.08771268    540.45514    902.72743     213.0118            0   -433.00725    513750.05   -514973.15    1415.6986    30874.665    16.918736    1.4622906     442.0096 
    1600    111.26408    2358.6631    2312.9924    310.50861    45.670697    534.15569    930.19337    214.01618            0   -415.30135    513754.49   -514971.89    1102.7575    30927.841    16.458462    1.5046776    436.61156 
    1620    112.58798    2373.6192    2328.6924    312.61627     44.92671    521.93368    949.08964    207.56037            0   -431.27075    513770.83   -514973.22    1242.3542    30983.646    16.543504    1.4554589    439.58661 
    1640    113.86913    2387.2518    2337.8951    313.85168    49.356695    534.35796    962.84654    208.10454            0   -458.90825     513777.6   -514974.64   -164.95025    31040.536    17.015779    1.5827377    441.14953 
    1660    115.18203    2399.6729    2341.1028     314.2823    58.570078    509.96979    1005.9266    213.09282            0   -444.95788    513754.84    -514980.3     500.8588    31089.795    17.098546    1.5106367    441.72936 
    1680    116.46509    2408.6978    2351.6284    315.69531    57.069482    535.04478    1005.9034    214.68625            0   -452.90775    513738.97   -514984.62    1074.5071    31135.728    16.666966    1.5094091    443.93312 
    1700    117.77037    2414.3305    2402.5868    322.53625    11.743698    541.78926    946.56118    207.68313            0   -440.93586     513737.9   -514981.25    943.33366    31183.731    16.861563    1.4515719    453.62423 
    1720     119.0511    2417.0756     2341.887    314.38758    75.188584    565.59215    962.66392    210.82663            0   -438.00193    513751.61    -514977.5    221.55618    31232.501     16.70473    1.4671037    442.04844 
    1740     120.3588    2417.5803    2409.9906    323.53017    7.5897188     523.3683    928.06444    214.86403            0      -424.92    513738.26   -514972.05    463.45363    31276.995     17.16803    1.4129708    454.91312 
    1760    121.66576    2415.0425    2332.8523    313.17471     82.19014    568.61387    988.79589    216.83515            0   -420.21213    513699.64   -514971.48    1439.6723    31319.788      15.8901    1.4330745    440.66433 
    1780    122.97237     2409.636     2371.853    318.41038    37.782955    527.66483     977.9342    213.12775            0   -424.35648    513715.44   -514972.02    669.60405    31367.809    16.728181     1.376538    447.78624 
    1800    124.24763    2402.2651      2323.06    311.86014    79.205084    577.46941    1017.4321    209.02115            0   -416.67027     513664.3   -514972.35   -448.06056    31414.292    16.036958    1.3533371    438.72316 
    1820    125.55359    2392.3255    2395.4189    321.57399   -3.0934199    543.32653    946.55664     214.0214            0   -416.34285    513681.51   -514972.16    611.61918    31451.809    16.995485    1.3204751    452.19199 
    1840    126.85289    2378.9859    2330.1302    312.80928    48.855656    556.92851    943.91378    226.21045            0   -413.03349    513706.88   -514972.05    1521.4351    31489.361    15.741594       1.2647     440.2058 
    1860    128.11708    2363.6006    2349.6036    315.42349    13.997051    525.29514     973.7251    217.56493            0   -430.48184    513698.99    -514971.1    520.20526    31533.927    16.258634    1.2462322    443.71961 
    1880    129.41579    2347.6037    2270.1072    304.75147    77.496515    567.64168    993.30571    206.90342            0   -419.31269    513702.31   -514973.35    -319.0766    31576.733    15.849557    1.2170255    428.64642 
    1900    130.68714    2329.7118    2297.9722    308.49222     31.73955    534.99966    978.23461    207.18534            0   -413.93148     513698.6   -514973.35    1046.1611    31612.772    16.044369    1.1250997    433.90785 
    1920    131.97909    2310.1158     2325.754    312.22179   -15.638167    566.60163     899.7699    210.01588            0   -400.15624    513681.95   -514973.81    980.95252    31651.867    15.862702    1.0635439    439.31452 
    1940    133.27087    2290.0544    2300.4763    308.82838   -10.421885    558.73705    928.22191    207.31418            0   -392.02301    513658.59   -514971.26    715.62967     31694.36    16.083484    1.1281107     434.3714 
    1960    134.53151    2269.4931    2243.2319    301.14358    26.261262    576.51312    956.40428    215.88554            0   -380.31422    513627.35   -514969.57    425.13839    31737.277    15.458511    1.0558355    423.65888 
    1980    135.82713    2248.8171    2229.0437    299.23889    19.773392    564.75076    957.04443    215.17686            0   -376.70042    513623.87   -514964.37    1074.1205    31779.047    15.082911    1.0083256    421.09827 
    2000    137.12651     2227.682     2247.369    301.69898   -19.687071     539.6357    945.06247     208.3795            0   -402.41917    513656.24   -514966.58    1168.9966    31824.708    15.185088   0.99172975    424.56953 
Loop time of 137.127 on 1 procs (1 MPI x 1 OpenMP) for 2000 steps with 3000 atoms

Pair  time (%) = 71.3193 (52.0098)
Bond  time (%) = 7.88025 (5.74669)
Kspce time (%) = 13.7103 (9.99826)
Neigh time (%) = 2.36977 (1.72816)
Comm  time (%) = 0.371929 (0.271231)
Outpt time (%) = 0.0131159 (0.0095648)
Other time (%) = 41.4619 (30.2363)

Nlocal:    3000 ave 3000 max 3000 min
Histogram: 1 0 0 0 0 0 0 0 0 0
Nghost:    9964 ave 9964 max 9964 min
Histogram: 1 0 0 0 0 0 0 0 0 0
Neighs:    591236 ave 591236 max 591236 min
Histogram: 1 0 0 0 0 0 0 0 0 0

Total # of neighbors = 591236
Ave neighs/atom = 197.079
Ave special neighs/atom = 10.5
Neighbor list builds = 72
Dangerous builds = 0
