LAMMPS (15 Jul 2015)
WARNING: OMP_NUM_THREADS environment is not set. (../comm.cpp:89)
  using 1 OpenMP thread(s) per MPI task
units real
boundary p p p

atom_style full
bond_style harmonic
angle_style harmonic
dihedral_style opls
special_bonds lj/coul 0.0 0.0 0.5

pair_style hybrid/overlay lj/cut/coul/long 8.0 8.0 thole 2.600 8.0
kspace_style pppm 1.0e-4

comm_modify vel yes
read_data data.ethanol
  orthogonal box = (-14.0138 -14.0278 -14.0189) to (14.0169 14.0177 14.0857)
  1 by 1 by 1 MPI processor grid
  reading atoms ...
  3000 atoms
  scanning bonds ...
  5 = max bonds/atom
  scanning angles ...
  6 = max angles/atom
  scanning dihedrals ...
  9 = max dihedrals/atom
  reading bonds ...
  2750 bonds
  reading angles ...
  3250 angles
  reading dihedrals ...
  3000 dihedrals
  5 = max # of 1-2 neighbors
  6 = max # of 1-3 neighbors
  10 = max # of 1-4 neighbors
  11 = max # of special neighbors


pair_coeff    1    1 lj/cut/coul/long 0.065997 3.500000 # C3H C3H
pair_coeff    1    2 lj/cut/coul/long 0.065997 3.500000 # C3H CTO
pair_coeff    1    3 lj/cut/coul/long 0.044496 2.958040 # C3H H
pair_coeff    1    4 lj/cut/coul/long 0.105921 3.304542 # C3H OH
pair_coeff    1    5 lj/cut/coul/long 0.000000 0.000000 # C3H HO
pair_coeff    2    2 lj/cut/coul/long 0.065997 3.500000 # CTO CTO
pair_coeff    2    3 lj/cut/coul/long 0.044496 2.958040 # CTO H
pair_coeff    2    4 lj/cut/coul/long 0.105921 3.304542 # CTO OH
pair_coeff    2    5 lj/cut/coul/long 0.000000 0.000000 # CTO HO
pair_coeff    3    3 lj/cut/coul/long 0.029999 2.500000 # H H
pair_coeff    3    4 lj/cut/coul/long 0.071413 2.792848 # H OH
pair_coeff    3    5 lj/cut/coul/long 0.000000 0.000000 # H HO
pair_coeff    4    4 lj/cut/coul/long 0.169996 3.120000 # OH OH
pair_coeff    4    5 lj/cut/coul/long 0.000000 0.000000 # OH HO
pair_coeff    5    5 lj/cut/coul/long 0.000000 0.000000 # HO HO
pair_coeff    *  6*8 lj/cut/coul/long 0.000000 0.000000 # No lj for drudes
pair_coeff    1    1 thole 2.051000
pair_coeff    1    2 thole 1.580265
pair_coeff    1    4 thole 1.416087
pair_coeff    1    6 thole 2.051000
pair_coeff    1    7 thole 1.580265
pair_coeff    1    8 thole 1.416087
pair_coeff    2    2 thole 1.217570
pair_coeff    2    4 thole 1.091074
pair_coeff    2    6 thole 1.580265
pair_coeff    2    7 thole 1.217570
pair_coeff    2    8 thole 1.091074
pair_coeff    4    4 thole 0.977720
pair_coeff    4    6 thole 1.416087
pair_coeff    4    7 thole 1.091074
pair_coeff    4    8 thole 0.977720
pair_coeff    6    6 thole 2.051000
pair_coeff    6    7 thole 1.580265
pair_coeff    6    8 thole 1.416087
pair_coeff    7    7 thole 1.217570
pair_coeff    7    8 thole 1.091074
pair_coeff    8    8 thole 0.977720

group gETHANOL molecule 1:250
3000 atoms in group gETHANOL
group gATOMS type 1 2 3 4 5
2250 atoms in group gATOMS
group gDRUDES type 6 7 8
750 atoms in group gDRUDES


neighbor 2.0 bin

variable vTEMP   equal 300.0
variable vTEMP_D equal 1.0
variable vPRESS  equal 1.0

velocity gATOMS  create ${vTEMP} 12345
velocity gATOMS  create 300 12345
velocity gDRUDES create ${vTEMP_D} 12345
velocity gDRUDES create 1 12345

fix fDRUDE all drude 1 1 0 1 0 2 2 2

fix fSHAKE gATOMS shake 0.0001 20 0 b 2 3 5
  250 = # of size 2 clusters
  250 = # of size 3 clusters
  250 = # of size 4 clusters
  0 = # of frozen angles

compute cTEMP_DRUDE gDRUDES temp
compute cTEMP_DRUDE_DRUDE gDRUDES temp/drude
compute cTEMP_ATOM gATOMS temp


fix fLANG all langevin/drude ${vTEMP} 100.0 200611 ${vTEMP_D} 20.0 260514 zero yes
fix fLANG all langevin/drude 300 100.0 200611 ${vTEMP_D} 20.0 260514 zero yes
fix fLANG all langevin/drude 300 100.0 200611 1 20.0 260514 zero yes
fix fNPH all nph iso ${vPRESS} ${vPRESS} 500.0
fix fNPH all nph iso 1 ${vPRESS} 500.0
fix fNPH all nph iso 1 1 500.0

thermo_style custom step cpu etotal ke temp pe ebond eangle edihed eimp evdwl ecoul elong press vol c_cTEMP_DRUDE c_cTEMP_DRUDE_DRUDE c_cTEMP_ATOM f_fLANG[1] f_fLANG[2] f_fLANG[3] f_fLANG[4] f_fLANG[5] f_fLANG[6]
thermo 20

timestep 0.5
run 2000
PPPM initialization ...
  G vector (1/distance) = 0.379738
  grid = 30 30 30
  stencil order = 5
  estimated absolute RMS force accuracy = 0.0289979
  estimated relative force accuracy = 8.73262e-05
  using double precision FFTs
  3d grid and FFT values/proc = 50653 27000
Rebuild special list taking Drude particles into account
Old max number of 1-2 to 1-4 neighbors: 11
New max number of 1-2 to 1-4 neighbors: 11 (+0)
Neighbor list info ...
  2 neighbor list requests
  update every 1 steps, delay 10 steps, check yes
  master list distance cutoff = 10
Memory usage per processor = 17.0416 Mbytes
Step CPU TotEng KinEng Temp PotEng E_bond E_angle E_dihed E_impro E_vdwl E_coul E_long Press Volume cTEMP_DR cTEMP_DR cTEMP_AT fLANG[1] fLANG[2] fLANG[3] fLANG[4] fLANG[5] fLANG[6] 
       0            0    13868.828    2013.3852    270.28772    11855.443     3145.896    51.880809 0.00019113234            0    8481.5109    514734.14   -514557.98    170217.61    22094.109            1    10.473014    385.76329    381.84578    10.134301         5247         2250    1990.7288     22.65632 
      20    1.4843559    10970.012    5646.6301    758.03417    5323.3819    2059.5936    2216.9884    125.92554            0    1728.6053    514096.92   -514904.65    75436.064     22442.45    443.92176     440.9421    892.98456    896.60772    459.25244         5247         2250    4674.4077    1026.7082 
      40     2.898257    8946.3004    5328.0205    715.26229    3618.2799    1462.1369    1696.2859    256.70292            0    1227.1291    513938.28   -514962.25    46638.926    23048.183     289.4364    260.93082    898.02893    918.65023    271.21219         5247         2250    4789.3249    606.32401 
      60    4.2079608    7510.9138    4723.1153    634.05655    2787.7985    1200.8153    1745.4103    301.30777            0    557.91727    513950.17   -514967.82    37797.472    23517.111    183.83481    155.99732    827.22415    848.13625    166.64041         5247         2250    4421.7047    372.54255 
      80    5.5063159    6349.0396    4602.1226    617.81383     1746.917    881.77472    1380.8268    300.54011            0    204.13917    513929.54    -514949.9    33853.354    23924.249    128.83422    98.923773       827.57      847.903    106.57552         5247         2250    4420.4887    238.26103 
     100    6.8323979    5485.3222    4144.7402    556.41234     1340.582    784.84009    1301.8671    289.61557            0   -77.062714    514016.28   -514974.95    23857.465    24318.637    88.079176    61.796564    757.29167    773.03541     65.63611         5247         2250    4030.1712    146.73658 
     120    8.1057868    4862.0053    3777.3363    507.09006     1084.669    621.87069    1297.2363    283.15963            0   -165.00092    514030.24   -514982.84    17467.301      24661.1    60.580929    36.668733    698.59516     713.1089       39.094         5247         2250    3717.7482    87.398842 
     140    9.3699968    4340.9652    3447.5936    462.82361     893.3716     643.1449    1248.6314    275.36087            0   -264.51028    513962.87   -514972.13    14982.178     24941.74    47.587232    24.065225    640.91101    655.16165    24.933132         5247         2250    3415.6439    55.740699 
     160    10.624881    3926.9368    3280.8104    440.43373    646.12637    590.77624    1125.7232     275.3221            0   -402.26335    514039.99   -514983.43    17555.529    25182.215    37.932464    14.223128    613.05459    628.30906    15.336321         5247         2250    3275.6495    34.285994 
     180    11.872293    3510.3411    3034.5182    407.37013    475.82289    580.88726    1065.7063    271.62555            0   -478.17514    514008.07   -514972.29    9901.7384    25408.806    29.635174    9.0838748    569.36605    582.40269    9.4965698         5247         2250    3036.3196    21.230603 
     200    13.074404    3233.2057    2804.8754    376.54165    428.33026    560.57334    1096.7788    268.56938            0   -524.79217    514009.74   -514982.54    8543.4492     25602.16    24.482248    5.7562906    527.52451    539.91676    6.0996977         5247         2250    2814.8219     13.63653 
     220    14.311345    3020.0557    2679.3857    359.69523    340.66996    534.37676    1086.1078    252.72365            0   -554.44877    514000.87   -514978.96    7630.6161    25763.835    21.931038    4.2665621    504.54662    515.70113      4.48815         5247         2250    2688.5752    10.033742 
     240    15.542465    2817.6362    2557.8968     343.3859    259.73947    533.53125    1096.7513    235.23483            0   -594.78212    513968.14   -514979.14    6067.9397    25911.192    20.202764    3.0824542     481.9837    492.21185    3.2488029         5247         2250    2566.1154    7.2630483 
     260    16.770155    2631.1316    2460.4934    330.30994    170.63824    520.23801     1043.849    228.55335            0   -637.15729    514004.04   -514988.88    5635.1903    26047.493    18.283278    2.4365786    464.12256    476.20746    2.5145937         5247         2250    2482.6775    5.6216447 
     280    17.953521    2462.7215     2379.403    319.42393    83.318543    525.36331    972.01762    226.26993            0   -624.36335    513966.76   -514982.73    4763.2439    26167.845    17.031362    1.9468795    449.10457    459.82651    2.0880681         5247         2250    2397.2764    4.6681008 
     300     19.17181     2314.007    2233.3945    299.82295    80.612529    521.07514    985.58156     216.6623            0   -622.92535    513969.51   -514989.29    3501.9257    26271.903    16.119552    1.7676952    421.48886    429.64629    1.8718099         5247         2250    2239.9338    4.1846323 
     320    20.388271    2171.6005    2216.0458    297.49398   -44.445373     513.1225    926.87268    206.39293            0   -647.39127    513946.45   -514989.89    3556.0249    26368.557    15.702415    1.5906132    418.33982    427.71428    1.6751413         5247         2250    2229.8614    3.7449586 
     340    21.562229    2048.7645    2103.0412    282.32362   -54.276671    517.24017    972.17593    198.86832            0   -648.49462    513890.61   -514984.68    3723.4258    26461.822    14.621459    1.4390366    397.12708    405.67158    1.5249042         5247         2250    2114.9431    3.4090874 
     360    22.772831     1940.255    2045.2119     274.5603   -104.95688     499.1817    932.32957     187.5616            0   -652.16846    513915.39   -514987.25     2301.433    26551.361    13.474461    1.3608364    386.52591    395.03546    1.4516101         5247         2250    2059.4924    3.2452304 
     380    23.942143    1826.4337    1933.9251    259.62057   -107.49138     518.5733    919.38362    182.08763            0   -651.72644    513909.35   -514985.16    2618.7931    26632.025    12.899591    1.3698422    365.42596    372.25656    1.4226953         5247         2250    1940.7361    3.1805884 
     400    25.147855    1760.0079    1974.3468    265.04699   -214.33884    494.88766    905.27809    184.94874            0   -673.15814     513861.2    -514987.5     2096.731    26707.742    12.756558    1.3211075    373.24058    380.75994     1.381839         5247         2250    1985.0679    3.0892497 
     420    26.312724    1674.2459    1875.0429     251.7159   -200.79701    494.32791     919.1307    191.42967            0   -660.09631    513843.82   -514989.41    358.06627    26778.924    12.342252    1.3669372    354.37032    361.30741    1.4439013         5247         2250    1883.6534    3.2279966 
     440    27.514457    1636.3668    1886.8736    253.30412   -250.50682    501.37304    885.96911    179.94725            0   -646.55634    513813.44   -514984.68    465.97294    26842.197    12.189398    1.3374254    356.70506    364.17661      1.46241         5247         2250    1898.6117    3.2693747 
     460     28.67606    1593.0934    1860.7484    249.79693   -267.65503    491.39115     906.9344    174.33035            0   -666.38274    513814.92   -514988.85    126.16052    26894.743    11.922611     1.318024    351.80818    359.28672    1.4040707         5247         2250    1873.1186    3.1389511 
     480    29.887681    1505.0407    1837.1657    246.63106   -332.12503    509.85902    860.16645    173.43061            0    -651.2259    513765.85    -514990.2    1646.3283    26939.521    11.902161    1.3059704    347.29348    354.98038    1.3918225         5247         2250    1850.6678    3.1115688 
     500    31.203331    1442.2558     1798.394    241.42613   -356.13819    522.53768    861.77071    168.42903            0   -655.02572    513738.55    -514992.4    1526.9168     26984.71    11.608863    1.2922858     339.9822    346.51132    1.3739693         5247         2250    1806.5148    3.0716562 
     520    32.463972    1429.2148    1796.9298    241.22958   -367.71495    524.55666    871.69773    162.68814            0   -664.81406    513731.94   -514993.79   -680.86121    27027.519    11.310668    1.3042026    339.82906    346.60901    1.3923221         5247         2250    1807.0241    3.1126859 
     540      33.6433    1386.5466    1788.8853    240.14964   -402.33868    549.35219    874.93475    154.34652            0   -656.82759    513667.79   -514991.93   -112.10182    27063.585    11.685917     1.344913    338.12532     344.9312    1.4361648         5247         2250     1798.277    3.2107008 
     560    34.787133    1344.4167    1829.4102    245.58992   -484.99349    543.86102    827.43025    144.96524            0   -643.51447    513638.79   -514996.53    701.10406    27094.487    12.045428    1.3471384    345.74453    353.77014    1.4137422         5247         2250    1844.3583    3.1605727 
     580    35.960481    1286.7629     1718.567    230.70973   -431.80414    561.04865    874.04358    152.41827            0   -615.40981    513590.72   -514994.62    826.08615    27125.818      11.3177    1.2870882    324.79512      331.068     1.380302         5247         2250    1726.0021    3.0858135 
     600    37.099199    1275.3861    1701.9169    228.47454   -426.53082    558.07219    895.26591    163.23964            0   -608.79386    513561.43   -514995.74    284.53547    27152.441    11.065698     1.380762    321.70935    328.38323    1.4372409         5247         2250    1712.0052    3.2131065 
     620     38.26913    1273.8918    1712.1906    229.85372   -438.29876    558.54787    859.08268    175.40704            0   -603.76978    513568.36   -514995.92   -799.98388     27171.09    11.056301    1.2617125    323.68398    331.03342    1.3507885         5247         2250    1725.8218    3.0198329 
     640    39.407772    1217.1518    1736.1072    233.06442   -518.95534    572.52862    823.16123     163.5653            0   -606.82177    513521.07   -514992.46   -528.59646    27187.499     11.49029    1.2878991    328.08562    335.53398     1.352523         5247         2250    1749.2852    3.0237106 
     660    40.545719    1139.8934    1675.8281    224.97222   -535.93471     572.5104    829.99341    152.69698            0   -620.77477     513527.1   -514997.46    127.63393    27203.689     10.60952    1.3129361    316.90055    323.18549    1.4042789         5247         2250    1684.9071    3.1394165 
     680    41.714372    1132.7801    1684.9691    226.19937   -552.18903    579.17897     824.9868    153.95243            0   -613.89121    513497.59      -514994   -375.69988    27217.538    11.101613    1.3078601    318.44318    325.78057    1.4069734         5247         2250    1698.4364    3.1454402 
     700    42.851504    1123.7259    1689.7673     226.8435   -566.04141    579.34852    817.35591    160.76324            0   -604.95952    513473.67   -514992.22     539.9968    27228.562    11.061636    1.3246929    319.38065    326.07543    1.3987762         5247         2250    1699.9737    3.1271145 
     720    44.019294    1109.2452    1679.3944    225.45099   -570.14919    580.49864    815.37954    166.39557            0   -599.53737     513460.9   -514993.78     1379.628     27240.51    11.503117    1.3527937    317.20194    325.17042    1.4143765         5247         2250    1695.2554    3.1619908 
     740    45.154967    1103.9038    1664.1003    223.39782   -560.19651    598.28549    826.45607    162.40108            0   -577.67737    513419.55   -514989.21   -688.06905    27252.803    11.430955    1.2849668    314.29924    320.53614    1.3385236         5247         2250    1671.0949    2.9924134 
     760    46.289993    1069.6322    1656.8299    222.42181   -587.19776    602.32252    832.89566    153.82032            0   -575.90234    513395.07   -514995.41    40.843646    27264.248    10.778099    1.3114214    313.18428    320.59139    1.3878645         5247         2250    1671.3829    3.1027204 
     780    47.457451    1034.9853    1655.3151    222.21845    -620.3298    585.98097    809.14501    152.10567            0   -574.09092    513399.41   -514992.88   -542.13898    27275.872    10.832027    1.2671074    312.87062    319.70343    1.3577621         5247         2250    1666.7536    3.0354233 
     800    48.593481    1040.3169    1665.5678    223.59483   -625.25085    605.03042    803.57295    148.68705            0   -581.69335    513396.32   -514997.16     535.8591    27285.478    11.076597    1.3243528    314.73247    321.66918    1.3771608         5247         2250    1677.0019     3.078791 
     820    49.760179    1058.9481    1736.3976     233.1034    -677.4495    598.69968    784.98413    145.24433            0   -598.32684    513390.35    -514998.4    661.30446    27295.669    11.527752    1.2600787    328.12528    335.36458    1.3351129         5247         2250     1748.402    2.9847886 
     840    50.926635    1045.3784    1676.8277    225.10642    -631.4493    612.87881    813.63091    148.70121            0   -579.94856    513372.94   -514999.65   -709.36037     27305.36     11.35538    1.3042992    316.77288    322.73815    1.3762213         5247         2250    1682.5749    3.0766907 
     860    52.060884    1020.7309     1672.697    224.55189   -651.96607    601.90752    814.84165    150.80576            0   -580.50172    513365.58    -515004.6   -495.61008      27311.4    11.067829    1.2805163     316.1037    322.68751    1.3195137         5247         2250    1682.3109    2.9499147 
     880    53.195237    989.87899    1623.5853    217.95888   -633.70636     614.6379    850.57766      146.023            0   -574.97001    513330.69   -515000.67    642.87966    27315.764    10.855225     1.338419    306.77454    313.71163    1.4172497         5247         2250    1635.5157     3.168414 
     900    54.361374    951.29928    1656.7713    222.41394   -705.47199    612.66694    803.70933    146.11306            0   -578.97014    513313.84   -515002.83    -24.66438    27323.702    11.056793    1.3077613    313.05368    320.63384    1.3825176         5247         2250    1671.6043    3.0907668 
     920    55.495376    990.23712    1682.9256    225.92504   -692.68849    625.49291    805.11902    145.39781            0   -566.50947     513298.1   -515000.28    -197.4677    27331.656    11.042327    1.2591056    318.07659    324.24176    1.3371462         5247         2250    1690.4139    2.9893342 
     940    56.628989    975.32007    1655.1496    222.19623   -679.82952    644.56888    830.44185    142.39994            0   -571.05582    513274.28   -515000.46    -57.36251    27336.591    10.740486     1.315811    312.87808    319.17335    1.3943342         5247         2250    1663.9901     3.117184 
     960    57.794814    970.70957    1646.9748     221.0988   -676.26523    621.55653    860.81553    137.50196            0   -570.35847    513277.66   -515003.44    356.66027    27339.657    10.792146    1.3054388    311.28793    316.76916    1.3759197         5247         2250     1651.456    3.0760165 
     980    58.928493    922.60821    1622.7907     217.8522   -700.18247    618.71597    851.23286    133.07652            0   -567.79027    513264.96   -515000.37    5.1281321    27344.467    10.580526    1.3059825    306.73975    313.80853    1.3666458         5247         2250    1636.0209    3.0552836 
    1000    60.094022    903.52078     1692.943    227.26982    -789.4222    615.63909    786.17473     136.0751            0   -548.92889    513225.82   -515004.21   -1215.8274     27349.08    10.675553    1.3106316    320.15512    327.06122    1.3993663         5247         2250     1705.113    3.1284338 
    1020    61.227612    880.82937    1611.9406    216.39562   -731.11119    641.95133    825.78985    138.47494            0   -548.19881    513212.76   -515001.89   -120.47994    27348.478    10.061957    1.3118695    304.88065    310.60199    1.3440274         5247         2250    1619.3039    3.0047179 
    1040    62.361593    859.35882    1637.2347    219.79124   -777.87584    642.91383    781.96671    129.07882            0   -535.68978    513205.22   -515001.36   -128.41699     27349.25    10.958504    1.3251677    309.34842    315.59632    1.3752823         5247         2250    1645.3415    3.0745914 
    1060    63.519883     843.6634    1588.9732    213.31236   -745.30982    645.93104    848.24527    128.71177            0   -531.00457    513167.02   -515004.21     111.3449    27352.063    10.862026    1.3570723    300.13261    306.02338    1.4402142         5247         2250    1595.4336    3.2197537 
    1080    64.630508    819.34273    1604.5527    215.40383   -785.20997    653.64454    797.74835    132.82208            0   -520.03981    513152.36   -515001.74   -705.09278    27353.042    10.303306    1.3494576    303.36021    310.03613    1.4205135         5247         2250    1616.3538    3.1757106 
    1100    65.741246    799.10089    1574.7957    211.40909   -775.69478    654.13763    825.37479    142.68152            0   -514.52184     513120.3   -515003.67     1350.915    27353.287    10.201855    1.3131891     297.6959    304.19915     1.395831         5247         2250     1585.923    3.1205303 
    1120    66.883553    807.77511    1606.5291    215.66916   -798.75403       677.02    802.76738    138.71115            0   -519.19695    513103.61   -515001.67    551.01047    27358.309    10.735379    1.3296503    303.55428     311.1404    1.4144718         5247         2250    1622.1108    3.1622039 
    1140    67.996123    822.40019     1605.593    215.54349   -783.19283    664.08656    825.14971     139.5036            0    -525.0726     513119.2   -515006.06   -1500.6927    27365.732    10.433005     1.316104    303.50421    309.35836    1.3669488         5247         2250    1612.8202     3.055961 
    1160    69.108494    799.60355    1627.1824    218.44176   -827.57881    660.53797    810.61642    135.99659            0   -549.15929    513120.99   -515006.56   -463.83247     27365.87    10.813891    1.2915303    307.48219    314.76238    1.3683624         5247         2250    1640.9938    3.0591214 
    1180    70.220891    808.71869    1627.4862    218.48255   -818.76747    671.07453    814.08104    132.68184            0    -536.0374    513101.27   -515001.83   -1497.9686    27360.344    10.541927    1.2314218    307.65693    314.00776    1.2934088         5247         2250    1637.0596    2.8915545 
    1200    71.364654    800.76402    1602.0973     215.0742   -801.33325    661.27319    818.56681    137.56688            0   -528.29009    513116.11   -515006.56    727.09082    27352.249     10.54737    1.2063397    302.78471    309.58084    1.2695845         5247         2250    1613.9801    2.8382927 
    1220     72.47815    786.90424    1625.6159    218.23148    -838.7117    654.42667    808.06282    144.23638            0   -544.37793    513103.11   -515004.17    -1016.333    27347.251    10.314786    1.2788061    307.39547    313.45927    1.3689932         5247         2250    1634.2001    3.0605316 
    1240    73.592217    784.43915    1618.0202    217.21178   -833.58101    652.75565    810.84854    144.21786            0   -538.55907    513104.01   -515006.86   -1688.0609    27338.945    10.549894    1.2410241    305.83783    311.68964     1.306512         5247         2250    1624.9742    2.9208481 
    1260    74.736788    792.64493    1616.6996    217.03449   -824.05464    659.33158    832.96211    136.95679            0   -535.25333     513087.8   -515005.85   -240.86746    27324.585     10.51467    1.2952748    305.59961    312.65363    1.3597388         5247         2250         1630    3.0398423 
    1280    75.852034    772.02964    1579.0067     211.9744   -806.97707    680.62465    825.10068    128.65485            0   -522.39638     513085.1   -515004.06    1026.3484    27308.077    10.274826    1.3209624    298.47237    305.78464    1.3983694         5247         2250    1594.1889    3.1262051 
    1300    76.997568    794.71268    1640.9493    220.28991   -846.23661    653.48559     809.8286    126.57126            0   -529.35975       513101   -515007.77   -222.24259    27295.577    10.226502     1.332914     310.3744    316.91133    1.4139065         5247         2250    1652.1972    3.1609399 
    1320    78.112944    784.00371    1619.7825    217.44836   -835.77876    666.10367     843.1839    129.04786            0   -537.48412    513064.75   -515001.38   -904.29245    27284.448    10.649859    1.2775565    306.13305    312.90181    1.3114135         5247         2250    1631.2938    2.9318059 
    1340     79.22786    768.52183    1621.7783    217.71629   -853.25649    658.65554    797.98287    135.92558            0   -517.31157    513072.35   -515000.86    556.43774    27269.699    10.428313     1.374892    306.61075    312.83663    1.4252224         5247         2250     1630.954    3.1862379 
    1360    80.458677    750.55548    1561.8653    209.67325   -811.30983    659.33682    849.22159    146.12076            0   -514.99584    513050.84   -515001.83    156.64838    27254.169    10.374174    1.3907636     295.1419    300.85201    1.4353134         5247         2250    1568.4729    3.2087974 
    1380    81.739913    744.55824    1600.9118    214.91506   -856.35357    669.28688    822.92318    135.57716            0   -509.75984    513027.33   -515001.71    395.88113    27246.862    10.075199    1.3717267    302.75953    309.67792     1.414587         5247         2250    1614.4863    3.1624614 
    1400    82.896461    740.37698    1618.0191    217.21163    -877.6421    680.34192    804.16104    122.37614            0   -510.05578     513028.7   -515003.17   -1778.0909    27242.463    10.334066    1.3693494    305.93005    312.37693    1.4332267         5247         2250    1628.5574    3.2041323 
    1420    84.013917    707.95242    1606.2301    215.62901   -898.27766    681.75825    834.81666    117.56052            0   -511.14444    512980.84   -515002.11    132.87977     27231.78    10.680719    1.3298739    303.52032    309.42762    1.3910025         5247         2250    1613.1813    3.1097357 
    1440    85.132038     701.0459    1631.5857    219.03289   -930.53982    689.29026    778.55166    121.13791            0   -503.03703    512986.74   -515003.22    502.08629    27220.348    10.474276    1.2489076    308.47225    314.52804    1.3361063         5247         2250     1639.772    2.9870094 
    1460    86.281237     691.9965    1611.7145    216.36527   -919.71797    691.89285    800.91685    123.97376            0   -504.76462    512970.72   -515002.46    530.64797     27214.26    11.004233    1.3411395    304.43375    310.37148    1.4214629         5247         2250    1618.1021    3.1778331 
    1480    87.399689     691.7249    1594.0369    213.99213   -902.31197    688.47809    838.61898    125.21502            0   -504.16566    512953.09   -515003.55   -1094.2326    27210.327    10.784494    1.3624987    301.13708    307.42856    1.3948318         5247         2250    1602.7594    3.1182964 
    1500    88.548943    665.64633    1571.5229    210.96973   -905.87653    681.91529    823.02708    127.30163            0   -506.25486    512973.62   -515005.48   -1022.5661    27200.233    10.116081    1.2920225    297.10486     304.1025    1.3814678         5247         2250    1585.4191    3.0884199 
    1520    89.667689    675.29951    1631.0635    218.96279   -955.76401    670.77264    825.29942    133.56984            0   -531.08736    512951.49   -515005.81   -389.61365    27187.165    10.722319     1.303542    308.26586    315.58283    1.3601737         5247         2250    1645.2712    3.0408146 
    1540    90.786711    653.89323    1632.9694    219.21864   -979.07615    678.96106    792.69599    132.07987            0   -515.25022    512939.14    -515006.7   -1030.2457    27174.091    10.949307    1.2746528    308.53422    315.21753    1.3189144         5247         2250    1643.3666     2.948575 
    1560    91.936958    636.91726    1590.0999    213.46361   -953.18262    687.04134    809.44011    127.54619            0   -523.45302    512956.52   -515010.28   -951.93121    27155.942    10.644346    1.3314524    300.44194    307.26908    1.3939077         5247         2250    1601.9279    3.1162307 
    1580    93.057674    627.56968    1601.8646    215.04297   -974.29496    686.96797    803.53231    128.08068            0   -517.28126    512935.11   -515010.71   -1043.2395    27131.362    10.444074    1.3032549    302.78432    308.57921    1.3629459         5247         2250    1608.7582    3.0470122 
    1600    94.177628    639.59673    1591.5973    213.66464   -952.00062    695.73225    820.03411    126.92265            0   -523.57295    512936.97   -515008.08   -516.36154    27101.901    10.758413    1.3873937    300.68032    307.32045    1.4689106         5247         2250    1602.1957    3.2839076 
    1620    95.329414    631.83759    1582.6681    212.46592   -950.83047    708.36138    817.50888    123.99588            0   -518.92537    512930.72   -515012.49   -2198.9765    27071.135    10.941798    1.3123833    298.88904    305.22233    1.3792294         5247         2250    1591.2573    3.0834157 
    1640    96.450448    621.88183    1569.4451     210.6908   -947.56326    703.57599    823.87187    132.80048            0   -497.70649    512900.32   -515010.43     -1335.78    27038.969    10.575486    1.3038754    296.50959    304.23519    1.3703875         5247         2250     1586.111    3.0636487 
    1660    97.583772    642.07332    1595.5476    214.19493   -953.47423    705.46998    794.82235    141.09052            0   -484.29874    512898.11   -515008.66   -403.23344     27004.83    10.278831    1.3688199    301.64339    307.91355    1.4093291         5247         2250    1605.2878    3.1507066 
    1680    98.744041    620.05889     1604.721    215.42642   -984.66208    704.63874     808.2235    139.26176            0     -475.937    512849.25    -515010.1    -336.0674    26974.635    10.778893    1.3492261    303.18882    309.70473    1.4234988         5247         2250     1614.626    3.1823845 
    1700    99.870039    625.14905     1627.936    218.54293   -1002.7869    700.41444    790.63143    141.47429            0   -472.95296    512847.83   -515010.18    432.43074    26948.842    10.415211    1.3023122    307.79748    314.11725    1.3672755         5247         2250    1637.6304    3.0566913 
    1720    101.03245    635.67026    1585.5068    212.84701   -949.83654    711.22133    826.38676    138.90157            0   -470.74615    512857.96   -515013.56   -927.08791    26927.403    10.549169    1.3376239    299.60169    306.09385    1.3968301         5247         2250     1595.801    3.1227639 
    1740    102.16121    622.55036    1629.9419    218.81221   -1007.3915    701.72972    807.03841    133.88234            0   -462.62233    512821.73   -515009.15    60.724835    26906.734    11.270374    1.3178178    307.81601     314.6797    1.4199545         5247         2250    1640.5627    3.1744611 
    1760     103.2899    601.07861     1563.031    209.82973   -961.95237    721.05163    813.03641    135.83107            0    -472.1521    512852.13   -515011.85    1071.0762     26889.11    10.225205    1.2516112    295.42929    302.49934    1.3142025         5247         2250    1577.0612    2.9380411 
    1780    104.45494    615.76689    1612.7311    216.50175   -996.96425    712.00335     812.2101    135.93651            0   -469.54632    512821.55   -515009.11   -1171.9908    26876.291    10.662645    1.2933197    304.77505    311.40042    1.3579719         5247         2250    1623.4664    3.0358922 
    1800    105.58424    590.39061    1576.6095    211.65259   -986.21891     706.7567    822.39219    137.15671            0   -470.15251    512825.84   -515008.21   -1051.5297      26860.1    10.484872    1.3604408    297.92262    304.76105    1.4207411         5247         2250    1588.8524    3.1762194 
    1820    106.75253    603.65994      1596.51    214.32414   -992.85007    711.49043    808.94991    132.38543            0   -461.89866    512827.37   -515011.15    180.50052     26844.34    10.537127    1.3175429    301.71739    308.43196    1.4127881         5247         2250    1607.9905    3.1584397 
    1840      107.886    591.93917    1596.2013     214.2827   -1004.2621    720.41618    814.51338    137.96161            0    -460.4745    512793.12    -515009.8    605.10058     26833.73     10.31847    1.2462778    301.75182    307.88274    1.3331731         5247         2250    1605.1272    2.9804519 
    1860    109.05822     609.8248    1577.7772    211.80934   -967.95236    716.21723    808.30329    144.61624            0   -461.04538    512833.46   -515009.51   -1143.3982    26826.019    9.7804291    1.2780886    298.44826    303.96227     1.371672         5247         2250    1584.6881    3.0665203 
    1880    110.19192    614.25513     1599.756     214.7599   -985.50088    748.39555    792.89735    140.36606            0   -460.16996    512800.85   -515007.84   -261.10141    26816.306    10.545335     1.262636     302.3365     309.5859    1.3150974         5247         2250    1614.0065    2.9400416 
    1900    111.32562    615.77501    1599.1853    214.68329   -983.41029    729.35936    798.81735    146.34452            0   -492.16069    512844.21   -515009.98    493.95161    26806.893    10.428418      1.32976     302.2771    309.04068    1.4233877         5247         2250     1611.164    3.1821362 
    1920     112.4598    628.99417    1652.3184    221.81616   -1023.3242    715.08536     813.8821    147.49091            0    -508.7856    512818.33   -515009.33   -2250.9701    26803.895    10.842694     1.354924    312.29125    318.41276    1.4297669         5247         2250    1660.0248    3.1963977 
    1940    113.63143    613.28705     1595.717    214.21768   -982.42996    719.54904    821.80704     150.0739            0   -493.66309    512828.25   -515008.45   -2187.7221    26796.819    10.849438    1.3584119    301.43154    307.93211    1.4304724         5247         2250    1605.3846    3.1979748 
    1960    114.80283    594.22322    1584.9306    212.76966    -990.7074    717.75467    820.27772    151.35897            0   -491.90915    512819.49   -515007.68   -736.31063    26780.283    10.483825    1.3065662    299.51915    306.91442    1.3996432         5247         2250    1600.0789     3.129053 
    1980    115.93716     614.4096    1572.4353    211.09222   -958.02568    732.31342    826.01815    154.79578            0   -487.35165    512824.93   -515008.73    39.731855    26764.092    10.167887    1.3147155    297.25769    304.42808    1.4003485         5247         2250    1587.1166    3.1306298 
    2000    117.07179    604.51985    1580.7247    212.20504   -976.20489    716.50209    820.59198    155.66948            0   -482.48478    512823.08   -515009.56   -465.82593    26752.509    10.621089    1.3300516    298.65363        305.9    1.4104717         5247         2250    1594.7903    3.1532613 
Loop time of 117.072 on 1 procs (1 MPI x 1 OpenMP) for 2000 steps with 3000 atoms

Pair  time (%) = 57.1079 (48.7803)
Bond  time (%) = 7.72726 (6.60044)
Kspce time (%) = 13.4775 (11.5122)
Neigh time (%) = 1.72468 (1.47318)
Comm  time (%) = 0.36892 (0.315123)
Outpt time (%) = 0.00949168 (0.00810757)
Other time (%) = 36.656 (31.3107)

Nlocal:    3000 ave 3000 max 3000 min
Histogram: 1 0 0 0 0 0 0 0 0 0
Nghost:    10007 ave 10007 max 10007 min
Histogram: 1 0 0 0 0 0 0 0 0 0
Neighs:    720894 ave 720894 max 720894 min
Histogram: 1 0 0 0 0 0 0 0 0 0

Total # of neighbors = 720894
Ave neighs/atom = 240.298
Ave special neighs/atom = 10.5
Neighbor list builds = 49
Dangerous builds = 0
