LAMMPS (15 May 2015)
WARNING: OMP_NUM_THREADS environment is not set. (../comm.cpp:89)
  using 1 OpenMP thread(s) per MPI task
units real
boundary p p p

atom_style drude
bond_style harmonic
angle_style harmonic
dihedral_style opls
special_bonds lj/coul 0.0 0.0 0.5

pair_style hybrid/overlay lj/cut/coul/long 8.0 8.0 thole 2.600 8.0
kspace_style pppm 1.0e-4

comm_modify vel yes
read_data data.ethanol
  orthogonal box = (-14.0138 -14.0278 -14.0189) to (14.0169 14.0177 14.0857)
  1 by 1 by 1 MPI processor grid
  reading atoms ...
  3000 atoms
  scanning bonds ...
  5 = max bonds/atom
  scanning angles ...
  6 = max angles/atom
  scanning dihedrals ...
  9 = max dihedrals/atom
  reading bonds ...
  2750 bonds
  reading angles ...
  3250 angles
  reading dihedrals ...
  3000 dihedrals
  5 = max # of 1-2 neighbors
  6 = max # of 1-3 neighbors
  10 = max # of 1-4 neighbors
  11 = max # of special neighbors
Rebuild special list taking Drude particles into account
Old max number of 1-2 to 1-4 neighbors: 11
New max number of 1-2 to 1-4 neighbors: 11 (+0)


pair_coeff    1    1 lj/cut/coul/long 0.065997 3.500000 # C3H C3H
pair_coeff    1    2 lj/cut/coul/long 0.065997 3.500000 # C3H CTO
pair_coeff    1    3 lj/cut/coul/long 0.044496 2.958040 # C3H H
pair_coeff    1    4 lj/cut/coul/long 0.105921 3.304542 # C3H OH
pair_coeff    1    5 lj/cut/coul/long 0.000000 0.000000 # C3H HO
pair_coeff    2    2 lj/cut/coul/long 0.065997 3.500000 # CTO CTO
pair_coeff    2    3 lj/cut/coul/long 0.044496 2.958040 # CTO H
pair_coeff    2    4 lj/cut/coul/long 0.105921 3.304542 # CTO OH
pair_coeff    2    5 lj/cut/coul/long 0.000000 0.000000 # CTO HO
pair_coeff    3    3 lj/cut/coul/long 0.029999 2.500000 # H H
pair_coeff    3    4 lj/cut/coul/long 0.071413 2.792848 # H OH
pair_coeff    3    5 lj/cut/coul/long 0.000000 0.000000 # H HO
pair_coeff    4    4 lj/cut/coul/long 0.169996 3.120000 # OH OH
pair_coeff    4    5 lj/cut/coul/long 0.000000 0.000000 # OH HO
pair_coeff    5    5 lj/cut/coul/long 0.000000 0.000000 # HO HO
pair_coeff    *  6*8 lj/cut/coul/long 0.000000 0.000000 # No lj for drudes
pair_coeff    1    1 thole 2.051000
pair_coeff    1    2 thole 1.580265
pair_coeff    1    4 thole 1.416087
pair_coeff    1    6 thole 2.051000
pair_coeff    1    7 thole 1.580265
pair_coeff    1    8 thole 1.416087
pair_coeff    2    2 thole 1.217570
pair_coeff    2    4 thole 1.091074
pair_coeff    2    6 thole 1.580265
pair_coeff    2    7 thole 1.217570
pair_coeff    2    8 thole 1.091074
pair_coeff    4    4 thole 0.977720
pair_coeff    4    6 thole 1.416087
pair_coeff    4    7 thole 1.091074
pair_coeff    4    8 thole 0.977720
pair_coeff    6    6 thole 2.051000
pair_coeff    6    7 thole 1.580265
pair_coeff    6    8 thole 1.416087
pair_coeff    7    7 thole 1.217570
pair_coeff    7    8 thole 1.091074
pair_coeff    8    8 thole 0.977720

group gETHANOL molecule 1:250
3000 atoms in group gETHANOL
group gATOMS type 1 2 3 4 5
2250 atoms in group gATOMS
group gDRUDES type 6 7 8
750 atoms in group gDRUDES


neighbor 2.0 bin

variable vTEMP   equal 300.0
variable vTEMP_D equal 1.0
variable vPRESS  equal 1.0

velocity gATOMS  create ${vTEMP} 12345
velocity gATOMS  create 300 12345
velocity gDRUDES create ${vTEMP_D} 12345
velocity gDRUDES create 1 12345

fix fSHAKE all shake 0.0001 20 0 b 2 3 5
  250 = # of size 2 clusters
  250 = # of size 3 clusters
  250 = # of size 4 clusters
  0 = # of frozen angles

compute cTEMP_DRUDE gDRUDES temp
compute cTEMP_DRUDE_DRUDE gDRUDES temp/drude
compute cTEMP_ATOM gATOMS temp


fix fLANG all langevin/drude ${vTEMP} 100.0 200611 ${vTEMP_D} 20.0 260514 zero yes
fix fLANG all langevin/drude 300 100.0 200611 ${vTEMP_D} 20.0 260514 zero yes
fix fLANG all langevin/drude 300 100.0 200611 1 20.0 260514 zero yes
fix fNPH all nph iso ${vPRESS} ${vPRESS} 500.0
fix fNPH all nph iso 1 ${vPRESS} 500.0
fix fNPH all nph iso 1 1 500.0

thermo_style custom step cpu etotal ke temp pe ebond eangle edihed eimp evdwl ecoul elong press vol c_cTEMP_DRUDE c_cTEMP_DRUDE_DRUDE c_cTEMP_ATOM f_fLANG[1] f_fLANG[2] f_fLANG[3] f_fLANG[4] f_fLANG[5] f_fLANG[6]
thermo 20

timestep 0.5
run 2000
PPPM initialization ...
  G vector (1/distance) = 0.379738
  grid = 30 30 30
  stencil order = 5
  estimated absolute RMS force accuracy = 0.0289979
  estimated relative force accuracy = 8.73262e-05
  using double precision FFTs
  3d grid and FFT values/proc = 50653 27000
Neighbor list info ...
  2 neighbor list requests
  update every 1 steps, delay 10 steps, check yes
  master list distance cutoff = 10
Memory usage per processor = 17.0416 Mbytes
Step CPU TotEng KinEng Temp PotEng E_bond E_angle E_dihed E_impro E_vdwl E_coul E_long Press Volume cTEMP_DR cTEMP_DR cTEMP_AT fLANG[1] fLANG[2] fLANG[3] fLANG[4] fLANG[5] fLANG[6] 
       0            0    13868.828    2013.3852    270.28772    11855.443     3145.896    51.880809 0.00019113234            0    8481.5109    514734.14   -514557.98    170217.61    22094.109            1    10.473014    385.76329    381.84578    10.134301         5247         2250    1990.7288     22.65632 
      20     1.801384     10970.21     5646.991    758.08261     5323.219    2059.4652    2216.7716    125.89716            0    1728.5942    514097.17   -514904.68    75446.168    22442.447    443.96211    440.94468     893.0365      896.693    459.24773         5247         2250    4674.8523    1026.6977 
      40    3.4408529    8944.6432    5327.5312     715.1966     3617.112    1461.9951    1695.4432    256.67265            0    1227.0935     513938.2   -514962.29    46637.318    23048.185    289.43853    260.91715    897.93416     918.5776    271.18788         5247         2250    4788.9463    606.26967 
      60    5.0130589    7510.6058    4723.1512    634.06137    2787.4546    1200.7382    1746.2699     301.6106            0    557.60579    513949.05   -514967.82    37799.091     23517.11    183.83507       155.98    827.23093    848.14446    166.61949         5247         2250    4421.7475     372.4958 
      80    6.5674319    6349.8909    4603.8506     618.0458    1746.0403    881.66827    1379.9212    300.61744            0    204.70225    513929.08   -514949.94    33844.631    23924.241    128.83479    98.923764     827.9012    848.22737    106.58651         5247         2250    4422.1798    238.28561 
     100    8.1442828    5489.5556    4149.9461    557.11122    1339.6095    784.92267    1302.8095    289.30203            0   -77.160178    514014.76   -514975.03    23837.175    24318.646    88.065372    61.800256    758.29615    773.92985    65.663248         5247         2250    4034.8343    146.79725 
     120    9.6630468    4867.0008    3781.4587    507.64346    1085.5421    622.38891    1298.3022    283.96185            0   -165.48636    514029.15   -514982.77    17433.617    24661.127    60.610033     36.66959    699.37341    713.86123    39.093704         5247         2250    3721.6704    87.398179 
     140    11.167532    4344.9502    3448.1893    462.90359    896.76088    642.70845    1250.5867    277.35942            0   -265.12218    513963.02   -514971.79    14998.758    24941.693    47.634571     24.06686    641.00502     655.2186    24.935473         5247         2250    3415.9407    55.745931 
     160    12.658936    3930.8475    3283.4149    440.78338    647.43261    589.64447    1126.4007    276.15532            0   -402.58687    514040.86   -514983.04    17558.684    25182.111    37.927961    14.226912     613.5561    628.81777    15.340588         5247         2250    3278.3017    34.295535 
     180    14.140137    3512.5274     3036.255    407.60329    476.27235     580.9206    1067.5462    272.25175            0   -478.30797     514006.3   -514972.44    9891.2292    25408.697    29.651994     9.084547    569.69199    582.76446    9.4956202         5247         2250    3038.2057     21.22848 
     200    15.573295    3232.8048    2803.9686    376.41991    428.83622    559.94177    1096.9768     270.1311            0   -525.35278    514010.73   -514983.59    8553.9084    25601.971    24.510935    5.7386333    527.33829    539.81698    6.0833543         5247         2250    2814.3017    13.599993 
     220    17.036658    3021.2893    2681.0668    359.92091    340.22244    530.37876    1085.0765    254.49797            0   -553.84091     514005.2   -514981.09    7688.7282    25763.578    22.061593    4.2522532    504.81317    516.07272    4.4717037         5247         2250    2690.5125    9.9969746 
     240    18.493895    2817.5764    2560.8781    343.78613    256.69826    531.75682    1097.0765    236.13494            0   -593.35429     513966.1   -514981.02    6116.8632    25911.029    20.290401    3.0802062    482.51802    492.74647    3.2461811         5247         2250    2568.9026    7.2571869 
     260    19.944712    2631.2653    2467.0517    331.19036    164.21367    518.43792    1043.7807    228.96896            0   -635.62742    514000.57   -514991.92    5584.2801    26047.574    18.285607    2.4421157    465.37952    477.58639    2.5195752         5247         2250    2489.8664    5.6327813 
     280    21.350358    2464.3612    2374.4753     318.7624    89.885899    519.57844    973.17215    230.69152            0   -622.64858    513974.48   -514985.39    4804.9548    26168.214    17.102888    1.9312474    448.12875    458.82386    2.0732513         5247         2250    2392.0492    4.6349762 
     300    22.788618    2317.3604    2228.1788    299.12278    89.181602    514.30636    984.60606    219.45983            0   -622.90063    513984.54   -514990.83    3438.8163    26272.658    16.139264    1.7670031       420.48     428.6908     1.870056         5247         2250    2234.9524    4.1807114 
     320    24.223893    2175.5354    2213.1761    297.10873   -37.640673    506.00118     925.3108     205.0494            0   -649.56717    513965.72   -514990.15    3622.9785    26369.833    15.709561    1.5756295    417.78631    427.13789    1.6605577         5247         2250    2226.8564    3.7123553 
     340    25.616852    2055.8401    2101.8805     282.1678   -46.040422    510.10976    968.48057     200.6526            0   -652.99905    513912.44   -514984.73    3807.9597    26463.799    14.666991    1.4323205    396.88494    405.44455    1.5183226         5247         2250    2113.7595    3.3943733 
     360    27.044283    1949.6758    2051.7036     275.4318   -102.02782    495.78163    933.06041    188.02577            0   -654.54318    513923.28   -514987.63    2286.7066     26554.08    13.483272     1.353813    387.76734    396.11976    1.4437615         5247         2250    2065.1453    3.2276841 
     380     28.42901    1833.2434    1941.7422    260.66998   -108.49882    515.91213    918.08152    182.07695            0   -649.50209    513909.06   -514984.13    2711.4295    26635.469    12.962179    1.3599656    366.89858     373.8317    1.4118038         5247         2250    1948.9479    3.1562391 
     400    29.849744    1772.7916    1978.6574    265.62567   -205.86584    495.71976    899.59073    189.19957            0   -663.97904    513858.72   -514985.12    2162.8767     26712.01    12.811914    1.3307611     374.0437    381.63711    1.3904317         5247         2250    1989.6409    3.1084597 
     420    31.228507    1690.4823    1883.9588    252.91282   -193.47652    499.07451    920.63093     197.1916            0   -650.82623    513829.93   -514989.48    488.26856     26784.06    12.437252    1.3699603    356.03981    362.82938    1.4447286         5247         2250     1891.588    3.2298463 
     440    32.642524    1651.5623    1905.3888     255.7897   -253.82645    500.21217    886.99489    180.13362            0   -638.25068     513803.3   -514986.21    709.95181    26848.878    12.266604     1.331923    360.22342    367.68544    1.4532583         5247         2250    1916.9048    3.2489153 
     460    34.015613    1604.0665     1853.011    248.75822   -248.94452    487.33524    912.73551    178.78634            0   -662.84666    513825.54   -514990.49    228.86614    26903.837    11.937706    1.2942619    350.31758    357.81981    1.3763564         5247         2250    1865.4709    3.0769927 
     480    35.426121    1513.6254    1833.8554    246.18667   -320.23001    504.50532    865.88132    178.45416            0    -650.7942    513774.29   -514992.56    1616.5949    26950.455    11.893339    1.2980721    346.66231    354.29151    1.3885061         5247         2250    1847.0764    3.1041546 
     500    36.813511    1449.5559    1806.8196    242.55724    -357.2637    521.86691     867.9047    168.56075            0   -652.57684    513730.19   -514993.21    1691.8382    26996.886    11.475898    1.2731052    341.65529    348.27689    1.3563625         5247         2250    1815.7195    3.0322943 
     520    38.224399    1439.5675    1806.0267     242.4508   -366.45922    524.48566    871.42682    165.51309            0   -657.70777    513724.02    -514994.2   -564.41395    27041.323    11.527081     1.321916    341.48128    348.61241    1.4097134         5247         2250    1817.4688    3.1515658 
     540    39.597535    1388.2082    1787.8224    240.00695   -399.61415    548.59076    867.98922    160.74246            0   -650.44155    513664.35   -514990.84   -105.91982    27078.849    11.665421    1.3392263    337.93022    344.93575    1.4255403         5247         2250    1798.3007    3.1869487 
     560    41.164029    1339.5831    1814.1001    243.53461   -474.51701    544.30849    824.10216     152.2012            0   -639.65464    513639.31   -514994.78    647.99541    27109.891    12.005385    1.3334594    342.82502    350.89505    1.4060021         5247         2250    1829.3692     3.143269 
     580    42.575715    1285.0049    1712.6141    229.91057   -427.60912    561.45477    873.65372    150.34342            0   -615.62994    513598.08   -514995.51    812.35732    27140.538    11.231004    1.2938785     323.6904    329.68866     1.385348         5247         2250     1718.811    3.0970945 
     600    43.945685    1272.5772    1685.9082    226.32544   -413.33102    565.31151    900.75374    162.44555            0   -602.03045    513556.53   -514996.34    644.74292    27166.242    11.060082    1.3923596    318.64109    325.16754    1.4498862         5247         2250    1695.2404    3.2413765 
     620    45.283454    1278.0887    1714.4602    230.15841   -436.37142    559.02886    847.60126    178.58331            0    -597.3055    513571.75   -514996.03   -382.12498     27184.84    11.058439    1.2585585     324.1184     331.4429    1.3471297         5247         2250    1727.9566    3.0116533 
     640    46.652657    1213.8806    1727.0211    231.84466   -513.14053    569.60653    812.59107    166.13849            0   -603.16294    513532.86   -514991.17   -534.75151    27202.577    11.476028    1.2769583    326.34891    333.84914    1.3432446         5247         2250    1740.5014    3.0029677 
     660    47.988368    1148.5681    1668.4818    223.98603   -519.91378    562.06007    815.97138    155.46429            0   -618.64591    513560.29   -514995.05    1.0772834    27220.581     10.50203    1.3323196    315.53749    321.69071    1.4227251         5247         2250    1677.1142     3.180655 
     680    49.323793    1145.2954    1657.2269     222.4751   -511.93146    577.24368    824.27467    158.64287            0   -620.28609    513541.48   -514993.29   -306.71756    27236.701     10.85766    1.3030973    313.22635    320.18058    1.3950208         5247         2250    1669.2412     3.118719 
     700    50.690684    1126.6858    1666.7657    223.75564   -540.07993    568.98609     824.2922    162.35778            0   -621.52889    513518.24   -514992.43    286.69191    27249.943    10.855951    1.2972861    315.05675    321.33213    1.3591586         5247         2250    1675.2447    3.0385452 
     720    52.025358    1106.4593    1670.4318     224.2478   -563.97253    571.76461    807.77027    161.80792            0   -621.48096    513514.18   -514998.02    1004.3392    27262.173    11.501136    1.3432099    315.48365    323.71901    1.4043912         5247         2250    1687.6886    3.1396676 
     740    53.390772    1104.4672    1668.4387    223.98023   -563.97151    595.78302    815.63876    155.04299            0   -603.10081    513466.46   -514993.79   -992.47289    27272.506    11.233547    1.2937226    315.21594    321.53884    1.3500122         5247         2250    1676.3224    3.0180973 
     760    54.724495    1079.8338    1658.2217    222.60865   -578.38787    590.02963    828.90724     152.6649            0   -598.51034    513449.73    -515001.2   -10.208341    27280.374    10.814654     1.322956    313.43559    320.79184    1.3976495         5247         2250     1672.428    3.1245957 
     780     56.09021     1042.831    1640.2884    220.20118   -597.45735    575.34442    809.32884    152.79472            0   -591.87748    513453.46   -514996.51   -487.15382      27288.3    10.861369    1.2471232    309.97575    316.70694    1.3343754         5247         2250    1651.1316    2.9831396 
     800    57.425148    1056.1752     1660.595    222.92725   -604.41983    595.99299     805.0323     146.4789            0   -592.94885    513440.88   -514999.85    388.89313    27294.397     11.02262    1.3282203    313.80175    320.34853    1.3888923         5247         2250    1670.1168     3.105018 
     820    58.790992    1070.8815    1715.6391    230.31667   -644.75756    599.47928    790.16827    143.98182            0   -600.48079    513424.08   -515001.99    534.96183    27300.529    11.369361    1.2477377    324.21138    331.20874    1.3240549         5247         2250    1726.7358    2.9600671 
     840    60.124158    1064.0337    1668.0205    223.92409   -603.98682     606.9467    827.65378    148.44872            0   -579.24573    513392.11    -514999.9   -491.02169    27307.411    11.346669    1.2677494    315.08728    320.76699    1.3470675         5247         2250    1672.2984    3.0115143 
     860    61.457838    1047.0043    1677.8701    225.24636   -630.86582    608.48313    806.65085    148.78847            0   -560.96094    513370.97    -515004.8   -207.43868    27313.251    11.305124    1.2703377    316.99435    323.76141    1.3181028         5247         2250    1687.9096    2.9467605 
     880    62.821937    1019.1655    1628.7015     218.6457   -609.53604    625.13518    857.97858    149.55871            0   -563.69111    513322.24   -515000.76    386.52647    27318.921    10.739976     1.361097    307.80524    314.54526    1.4313158         5247         2250    1639.8618    3.1998605 
     900    64.154332    987.18541    1667.7448    223.88708   -680.55936    622.11404    807.77189    147.49472            0   -562.33663    513308.72   -515004.33    137.79649    27327.305    11.069473    1.3488034     315.1531    322.57165    1.4207351         5247         2250    1681.7069     3.176206 
     920    65.518391    1013.6261    1695.2818     227.5838   -681.65577     635.0619    813.40729    145.30454            0   -567.58107    513295.48   -515003.33   -18.147542    27337.285    11.132918    1.2552549    320.40787    326.46424    1.3391278         5247         2250    1702.0007    2.9937642 
     940    66.850695    1005.9024    1695.8958    227.66622   -689.99341    648.00319    846.05574    139.89208            0    -569.9147    513249.75   -515003.78    193.83869     27345.29    11.073931    1.3104582     320.5509    326.67811    1.3744103         5247         2250    1703.1157     3.072642 
     960    68.214763     985.2523    1677.7083    225.22464   -692.45599    634.13524    859.76081    139.84613            0   -574.48054    513254.75   -515006.47    207.62175    27349.978    10.849813    1.3025847    317.15829    322.82502     1.355355         5247         2250    1683.0278    3.0300418 
     980    69.547996    927.81006    1625.0861    218.16035   -697.27606    618.72869    854.64985     140.3875            0   -562.04833    513254.44   -515003.43    333.94741    27355.501    10.970247    1.3012443    307.01315     314.7246    1.3658963         5247         2250    1640.7968    3.0536081 
    1000    70.912294    894.88792    1684.6638    226.15838   -789.77591    619.73062    776.85353    141.72323            0    -546.6126    513222.01   -515003.48   -1380.1465    27361.563    10.636974     1.332986     318.5836    325.55726    1.4199287         5247         2250    1697.2722    3.1744033 
    1020    72.245604    879.23511    1619.0303    217.34739   -739.79523    648.02806    823.74697     143.9806            0   -539.76504    513188.13   -515003.92   -733.01691    27361.124    10.092388    1.3471389    306.22752    312.39946    1.3819884         5247         2250    1628.6748    3.0895836 
    1040    73.605517    850.18796    1642.2011    220.45795   -792.01309    637.83031    779.24731     132.2305            0   -538.82661    513201.03   -515003.52   -2.3542533    27360.978     10.95292    1.3017323    310.30342    316.82293    1.3618474         5247         2250    1651.7363    3.0445562 
    1060    74.913825    828.14577    1575.5077    211.50468   -747.36196    642.63563    826.05775    134.91122            0   -538.92118    513193.17   -515005.21   -405.07209    27362.589    10.313815    1.3099484    297.78453    303.32057     1.377772         5247         2250    1581.3426    3.0801574 
    1080    76.222479    838.93047    1618.0579    217.21685   -779.12747    642.07098    803.36633    138.99649            0   -519.10451    513160.11   -515004.56    742.89317    27362.821    10.384175    1.3104816    305.91604    312.27927    1.3735531         5247         2250    1628.0482    3.0707256 
    1100    77.562067    853.04455    1613.6529    216.62549   -760.60834    638.65948    849.79279    138.66371            0   -538.48084    513156.96    -515006.2    876.35398    27364.258    10.370714    1.2997357    305.07687    311.87024     1.383433         5247         2250    1625.9158    3.0928132 
    1120    78.871833     861.8194    1637.0753    219.76985   -775.25593    646.77853    817.36667    135.09127            0   -538.97248    513170.44   -515005.96   -439.56283     27372.07     10.63633    1.2097898    309.45582    316.78979    1.2847693         5247         2250    1651.5635    2.8722399 
    1140    80.181098    835.48389    1636.5939    219.70521   -801.10997    629.48816    827.27736    138.96661            0   -545.55139     513153.8   -515005.09   -650.25139    27379.061    10.493069    1.3121221    309.42482    316.60496    1.3755821         5247         2250       1650.6    3.0752617 
    1160    81.521946    821.06382    1629.4069    218.74039   -808.34308    656.67083    806.49612    144.02934            0   -548.67745     513138.2   -515005.06    457.42104     27379.02    10.835848    1.2879676    307.89948    314.11703    1.3596215         5247         2250    1637.6293    3.0395801 
    1180    82.862144    794.56054     1618.607    217.29056   -824.04648    667.86583    810.95056    140.00146            0   -535.88354    513096.21   -515003.19   -63.625164    27376.292     10.98329    1.2937143     305.7648    312.60315    1.3603335         5247         2250    1629.7367    3.0411719 
    1200    84.173688    791.26118    1613.8151    216.64727   -822.55394    660.07325    822.93129    139.77961            0    -529.0301    513088.92   -515005.23    1045.3876    27371.825    10.483873    1.2922399    305.05952    312.02151    1.3720476         5247         2250    1626.7044    3.0673599 
    1220     85.48475    759.23597    1588.4722     213.2451   -829.23622     666.8317    801.28844    137.59284            0   -515.90261    513087.82   -515006.87   -969.93643    27365.717    10.010253    1.2731463    300.40127    307.37545    1.3270369         5247         2250    1602.4825    2.9667338 
    1240    86.826202      770.685    1582.5365    212.44826   -811.85152    659.50595    838.48062    134.66275            0   -513.90704    513077.72   -515008.32    888.30563    27357.714    10.369656    1.3303958    299.10882     305.2925    1.3882999         5247         2250    1591.6231    3.1036937 
    1260    88.139787    771.56969    1634.0699    219.36638   -862.50023    647.56527    796.53613    127.23101            0   -525.62035    513099.71   -515007.93    1109.6982    27352.883      11.0053    1.3123668    308.72134    315.23939    1.3976028         5247         2250    1643.4806    3.1244913 
    1280    89.485211    765.76327    1599.8656    214.77461   -834.10229    674.95199    824.20789    123.91997            0   -532.32977    513083.71   -515008.56   -1465.2116    27350.001    10.642392    1.3177538    302.31595    308.86152    1.3935979         5247         2250      1610.23    3.1155379 
    1300    90.797867    751.09996    1640.9325    220.28766   -889.83258    660.76996    775.70287    122.12217            0   -527.33628    513085.08   -515006.17   -160.71605    27342.649    11.062978    1.3395232    310.01297    316.49208    1.4139132         5247         2250    1650.0114     3.160955 
    1320    92.110332     753.4975    1616.5293    217.01164    -863.0318    667.28094     823.6195    122.58691            0   -531.02496    513060.61   -515006.11   -273.85519     27334.41    10.865082    1.3769948    305.41689    312.13015    1.4366643         5247         2250    1627.2708    3.2118175 
    1340    93.453274    767.79068    1665.2256     223.5489   -897.43496    664.48965    788.27015    125.56531            0   -543.36352    513071.42   -515003.82   -852.22307    27324.133    11.272943    1.3729917    314.58277    321.86982    1.3978545         5247         2250     1678.048    3.1250541 
    1360    94.765606    766.29656    1624.0935    218.02709   -857.79693    674.60775    824.40677     125.9292            0    -543.0225     513064.7   -515004.42   -734.57821    27311.568    11.140052    1.3830336    306.75004    313.55315    1.4453798         5247         2250    1634.6895     3.231302 
    1380    96.078524    776.83872     1626.704    218.37755   -849.86531    694.56201    817.08172    128.13492            0   -532.23875    513044.42   -515001.83   -1229.0574    27294.938    10.937936    1.3244765    307.33732    314.23226    1.3814159         5247         2250      1638.23    3.0883038 
    1400    97.424303    757.77201    1623.4196    217.93663    -865.6476    687.76401    794.83512    133.15808            0   -523.91452    513044.11    -515001.6    318.67202    27273.386    10.828201    1.3009241    306.75433    313.78359    1.3515198         5247         2250    1635.8909    3.0214678 
    1420    98.746363    709.72386    1576.6355    211.65608   -866.91165    689.13253    804.74436    129.75072            0   -516.42837    513027.84   -515001.95   -550.71467    27251.188    10.372451    1.2870934    297.97574    304.62417    1.3399607         5247         2250    1588.1389    2.9956262 
    1440    100.06131    707.61717    1588.3928    213.23443   -880.77558    677.96189     797.8013    120.36725            0   -501.87258    513025.01   -515000.04    567.63319    27232.315    10.729966    1.3069195    300.07782    307.31419    1.3675384         5247         2250    1602.1631    3.0572792 
    1460    101.40813    709.15743     1624.252    218.04837   -915.09457    679.65898    789.35854    116.51869            0   -497.56701    512997.72   -515000.78   -403.99822    27219.447    10.415208    1.3080033    307.09085    313.62159    1.3741783         5247         2250    1635.0463    3.0721233 
    1480    102.75443    677.97011    1545.4359    207.46767   -867.46577    707.14015    829.34646    116.63126            0    -495.3021    512978.02    -515003.3   -247.46307    27205.708    10.311434    1.3119508    292.01741    297.45672    1.3681509         5247         2250    1550.7718    3.0586486 
    1500    104.07118    664.53503    1563.8951    209.94573   -899.36005    709.32184    812.96105    118.35592            0   -476.63618    512941.32   -515004.68   -97.601584    27194.345    10.324192    1.3988068    295.55264    302.02207     1.471302         5247         2250    1574.5729    3.2892539 
    1520    105.40613    669.45555    1577.1153    211.72048    -907.6597    703.61985    810.69091    128.24067            0   -475.43188    512931.43   -515006.21    69.929688    27187.907    10.264475    1.3376781      298.114    304.53367    1.3963466         5247         2250     1587.667    3.1216829 
    1540    106.76617    666.03046    1597.4922    214.45599   -931.46173    689.21395    799.83752    128.17451            0   -490.65825    512949.93   -515007.96   -599.16889    27183.121    10.340482     1.395759       301.99    308.49775    1.4467748         5247         2250    1608.3335    3.2344206 
    1560    108.09054    663.74235    1591.6104    213.66638   -927.86802    692.25765    809.19633    130.90267            0   -506.74696    512952.83   -515006.31    614.20586    27176.115    10.422501    1.3921811    300.82667    306.84426    1.4594221         5247         2250    1599.7131     3.262695 
    1580    109.44121    660.86378    1605.2015    215.49094   -944.33776     687.1921    787.69619    124.54491            0   -514.81763    512978.27   -515007.22    765.45728    27169.791     10.62815    1.3729296    303.34555    309.94787    1.4287331         5247         2250    1615.8936    3.1940865 
    1600    110.75972    662.03166    1570.8257    210.87613   -908.79399    688.32442    810.99179    121.53142            0    -495.3965    512969.59   -515003.83   -461.37224    27166.013    10.583437    1.3562456    296.77099    303.91341    1.4331791         5247         2250    1584.4333     3.204026 
    1620    112.07807    622.38979    1528.3578    205.17501   -905.96799    694.16528    803.06834    124.52047            0   -492.74143    512970.79   -515005.77   -317.34997    27161.914      10.0037    1.2960235    288.87341    295.01107    1.3467409         5247         2250    1538.0216    3.0107841 
    1640    113.42721    607.68787    1597.0428    214.39566   -989.35489    695.51475    771.86792     118.6195            0   -496.40452    512921.17   -515000.12    -483.8419    27157.956    10.250931    1.3086063    301.94214    308.52169    1.3696208         5247         2250    1608.4583    3.0619346 
    1660    114.74454    648.22796    1603.9643    215.32484    -955.7363    704.02553    808.04069    115.60333            0   -490.27051    512906.33   -514999.47   -288.07106    27153.846    10.418149    1.2878299    303.19816    308.24276    1.3501594         5247         2250    1607.0041    3.0184265 
    1680    116.06279    625.38808    1550.0449    208.08641   -924.65677    724.18979    822.32465     117.6819            0   -475.01319    512885.69   -514999.53    -934.2091    27152.704    9.9629126    1.3004668    293.05072    299.89909    1.3639398         5247         2250    1563.5049     3.049234 
    1700    117.41152    643.16962    1599.7627     214.7608    -956.5931    732.48563     796.8033    128.38984            0   -462.94178     512845.8   -514997.13    97.752914    27146.178    10.554918    1.2415676    302.33368    308.56389    1.3184733         5247         2250    1608.6784    2.9475889 
    1720    118.73116    654.37228    1582.2205    212.40583   -927.84819    731.05018    823.36189    135.05277            0   -464.76608    512848.67   -515001.22     1083.778    27139.705    10.191101      1.31928    299.12467    305.17573    1.3657823         5247         2250    1591.0144    3.0533532 
    1740    120.08063    629.58203     1597.446    214.44979   -967.86399    729.07419     805.4955    128.16991            0   -462.60418    512832.76   -515000.76    534.64164        27139    10.531161     1.219336    301.89948    308.80442    1.2896126         5247         2250    1609.9323    2.8830677 
    1760    121.39945    604.06572    1607.4761    215.79629   -1003.4104    716.38542    785.57277    123.35839            0   -463.39522    512837.15   -515002.48   -288.78184    27141.305    10.128856    1.2539839    303.99566    310.75482    1.3434344         5247         2250    1620.1006    3.0033921 
    1780    122.71828    605.22926    1595.3718    214.17133   -990.14251    721.24683     808.5699    121.15601            0   -457.59502    512817.38    -515000.9   -633.54444     27143.19    10.688585    1.3349491     301.4342    307.06854    1.4111376         5247         2250    1600.8824    3.1547499 
    1800    124.06769    594.58077    1615.2889    216.84512   -1020.7082    730.41993    783.58721    126.50552            0   -461.48679    512802.56   -515002.29   -246.56198    27140.557    10.302193    1.2919206    305.42002    312.32817    1.3293052         5247         2250    1628.3032    2.9718047 
    1820    125.38761    598.36725     1609.769    216.10409   -1011.4017    740.06757    788.65527    128.83685            0   -463.35393    512797.32   -515002.93     1232.499    27139.421    10.634109    1.3277546    304.21909    310.71063    1.3568014         5247         2250    1619.8702    3.0332755 
    1840     126.7145    592.92049    1611.8527    216.38383   -1018.9322    736.81597    776.31261    127.22076            0   -483.34387    512829.44   -515005.37   -1676.5742    27142.608    10.680518    1.3612836     304.5989    310.63921    1.4200955         5247         2250    1619.4979    3.1747763 
    1860    128.03579     547.1945    1544.3695    207.32451   -997.17496    718.31015    823.49162    120.32168            0   -490.08413    512837.92   -515007.14   -724.95864    27140.634    10.548667    1.2831775    291.71126    296.98149    1.3641785         5247         2250    1548.2942    3.0497678 
    1880     129.3873    548.10954     1580.324    212.15124   -1032.2145    728.48986     784.3669    117.50335            0   -474.15777    512819.76   -515008.18    39.972842    27131.046    10.560022    1.2682348    298.60292    306.44458    1.3588461         5247         2250    1597.6294    3.0378466 
    1900    130.70795    540.59826    1587.3644    213.09638   -1046.7661      712.247    778.68225    121.93262            0   -476.25567    512823.17   -515006.54    1433.8983     27120.34    10.402997     1.291867    300.02059     306.3525    1.3680355         5247         2250    1597.1494    3.0583904 
    1920     132.0299    522.74881    1535.6809    206.15811   -1012.9321    734.79482    801.34486    119.58492            0   -449.98832    512786.34   -515005.01    454.26852     27117.17     9.937145    1.2982079    290.30658    296.44115    1.3693498         5247         2250    1545.4772    3.0613287 
    1940     133.3827     518.6594    1594.3608    214.03562   -1075.7014    728.44006    765.79837    113.12623            0   -458.10305    512779.43   -515004.39   -798.91897    27114.939    10.150904    1.3641037    301.47055    308.54087     1.438171         5247         2250    1608.5583     3.215186 
    1960    134.70523    542.64805    1573.9731    211.29867   -1031.3251    723.99189    815.61947    109.43216            0   -469.90408    512796.92   -515007.38   -256.98301    27105.069    10.296261     1.264116    297.49769    302.92951    1.3334409         5247         2250    1579.3038    2.9810506 
    1980    136.05817    534.36095    1598.0002    214.52419   -1063.6392    730.62728    788.66048    108.00895            0   -474.44536    512788.98   -515005.47    906.45469    27097.718    10.541915    1.2721272    302.00117    309.22141    1.3334961         5247         2250    1612.1063     2.981174 
    2000    137.38054    563.65796    1585.9979    212.91293   -1022.3399    731.67632    832.15429    116.16882            0   -464.50945    512765.42   -515003.25    958.84462    27095.782    10.087703    1.3589019     299.8935    305.41777    1.4143335         5247         2250    1592.2762    3.1618946 
Loop time of 137.381 on 1 procs (1 MPI x 1 OpenMP) for 2000 steps with 3000 atoms

Pair  time (%) = 76.9954 (56.0453)
Bond  time (%) = 7.66705 (5.58089)
Kspce time (%) = 13.5244 (9.84445)
Neigh time (%) = 1.70791 (1.2432)
Comm  time (%) = 0.372016 (0.270792)
Outpt time (%) = 0.00960398 (0.00699078)
Other time (%) = 37.1043 (27.0084)

Nlocal:    3000 ave 3000 max 3000 min
Histogram: 1 0 0 0 0 0 0 0 0 0
Nghost:    10002 ave 10002 max 10002 min
Histogram: 1 0 0 0 0 0 0 0 0 0
Neighs:    712386 ave 712386 max 712386 min
Histogram: 1 0 0 0 0 0 0 0 0 0

Total # of neighbors = 712386
Ave neighs/atom = 237.462
Ave special neighs/atom = 10.5
Neighbor list builds = 50
Dangerous builds = 0
