LAMMPS (15 May 2015)
WARNING: OMP_NUM_THREADS environment is not set. (../comm.cpp:89)
  using 1 OpenMP thread(s) per MPI task
units real
boundary p p p

atom_style drude
bond_style harmonic
angle_style harmonic
dihedral_style opls
special_bonds lj/coul 0.0 0.0 0.5

pair_style hybrid/overlay lj/cut/coul/long 8.0 8.0 thole 2.600 8.0
kspace_style pppm 1.0e-4

comm_modify vel yes
read_data data.ethanol
  orthogonal box = (-14.0138 -14.0278 -14.0189) to (14.0169 14.0177 14.0857)
  1 by 2 by 2 MPI processor grid
  reading atoms ...
  3000 atoms
  scanning bonds ...
  5 = max bonds/atom
  scanning angles ...
  6 = max angles/atom
  scanning dihedrals ...
  9 = max dihedrals/atom
  reading bonds ...
  2750 bonds
  reading angles ...
  3250 angles
  reading dihedrals ...
  3000 dihedrals
  5 = max # of 1-2 neighbors
  6 = max # of 1-3 neighbors
  10 = max # of 1-4 neighbors
  11 = max # of special neighbors
Rebuild special list taking Drude particles into account
Old max number of 1-2 to 1-4 neighbors: 11
New max number of 1-2 to 1-4 neighbors: 11 (+0)


pair_coeff    1    1 lj/cut/coul/long 0.065997 3.500000 # C3H C3H
pair_coeff    1    2 lj/cut/coul/long 0.065997 3.500000 # C3H CTO
pair_coeff    1    3 lj/cut/coul/long 0.044496 2.958040 # C3H H
pair_coeff    1    4 lj/cut/coul/long 0.105921 3.304542 # C3H OH
pair_coeff    1    5 lj/cut/coul/long 0.000000 0.000000 # C3H HO
pair_coeff    2    2 lj/cut/coul/long 0.065997 3.500000 # CTO CTO
pair_coeff    2    3 lj/cut/coul/long 0.044496 2.958040 # CTO H
pair_coeff    2    4 lj/cut/coul/long 0.105921 3.304542 # CTO OH
pair_coeff    2    5 lj/cut/coul/long 0.000000 0.000000 # CTO HO
pair_coeff    3    3 lj/cut/coul/long 0.029999 2.500000 # H H
pair_coeff    3    4 lj/cut/coul/long 0.071413 2.792848 # H OH
pair_coeff    3    5 lj/cut/coul/long 0.000000 0.000000 # H HO
pair_coeff    4    4 lj/cut/coul/long 0.169996 3.120000 # OH OH
pair_coeff    4    5 lj/cut/coul/long 0.000000 0.000000 # OH HO
pair_coeff    5    5 lj/cut/coul/long 0.000000 0.000000 # HO HO
pair_coeff    *  6*8 lj/cut/coul/long 0.000000 0.000000 # No lj for drudes
pair_coeff    1    1 thole 2.051000
pair_coeff    1    2 thole 1.580265
pair_coeff    1    4 thole 1.416087
pair_coeff    1    6 thole 2.051000
pair_coeff    1    7 thole 1.580265
pair_coeff    1    8 thole 1.416087
pair_coeff    2    2 thole 1.217570
pair_coeff    2    4 thole 1.091074
pair_coeff    2    6 thole 1.580265
pair_coeff    2    7 thole 1.217570
pair_coeff    2    8 thole 1.091074
pair_coeff    4    4 thole 0.977720
pair_coeff    4    6 thole 1.416087
pair_coeff    4    7 thole 1.091074
pair_coeff    4    8 thole 0.977720
pair_coeff    6    6 thole 2.051000
pair_coeff    6    7 thole 1.580265
pair_coeff    6    8 thole 1.416087
pair_coeff    7    7 thole 1.217570
pair_coeff    7    8 thole 1.091074
pair_coeff    8    8 thole 0.977720

group gETHANOL molecule 1:250
3000 atoms in group gETHANOL
group gATOMS type 1 2 3 4 5
2250 atoms in group gATOMS
group gDRUDES type 6 7 8
750 atoms in group gDRUDES


neighbor 2.0 bin

variable vTEMP   equal 300.0
variable vTEMP_D equal 1.0
variable vPRESS  equal 1.0

velocity gATOMS  create ${vTEMP} 12345
velocity gATOMS  create 300 12345
velocity gDRUDES create ${vTEMP_D} 12345
velocity gDRUDES create 1 12345

fix fSHAKE all shake 0.0001 20 0 b 2 3 5
  250 = # of size 2 clusters
  250 = # of size 3 clusters
  250 = # of size 4 clusters
  0 = # of frozen angles

compute cTEMP_DRUDE gDRUDES temp
compute cTEMP_DRUDE_DRUDE gDRUDES temp/drude
compute cTEMP_ATOM gATOMS temp


fix fLANG all langevin/drude ${vTEMP} 100.0 200611 ${vTEMP_D} 20.0 260514 zero yes
fix fLANG all langevin/drude 300 100.0 200611 ${vTEMP_D} 20.0 260514 zero yes
fix fLANG all langevin/drude 300 100.0 200611 1 20.0 260514 zero yes
fix fNPH all nph iso ${vPRESS} ${vPRESS} 500.0
fix fNPH all nph iso 1 ${vPRESS} 500.0
fix fNPH all nph iso 1 1 500.0

thermo_style custom step cpu etotal ke temp pe ebond eangle edihed eimp evdwl ecoul elong press vol c_cTEMP_DRUDE c_cTEMP_DRUDE_DRUDE c_cTEMP_ATOM f_fLANG[1] f_fLANG[2] f_fLANG[3] f_fLANG[4] f_fLANG[5] f_fLANG[6]
thermo 20

timestep 0.5
run 2000
PPPM initialization ...
  G vector (1/distance) = 0.379738
  grid = 30 30 30
  stencil order = 5
  estimated absolute RMS force accuracy = 0.0289979
  estimated relative force accuracy = 8.73262e-05
  using double precision FFTs
  3d grid and FFT values/proc = 17908 7200
Neighbor list info ...
  2 neighbor list requests
  update every 1 steps, delay 10 steps, check yes
  master list distance cutoff = 10
Memory usage per processor = 13.7041 Mbytes
Step CPU TotEng KinEng Temp PotEng E_bond E_angle E_dihed E_impro E_vdwl E_coul E_long Press Volume cTEMP_DR cTEMP_DR cTEMP_AT fLANG[1] fLANG[2] fLANG[3] fLANG[4] fLANG[5] fLANG[6] 
       0            0    13868.828    2013.3852    270.28772    11855.443     3145.896    51.880809 0.00019113234            0    8481.5109    514734.14   -514557.98    170217.61    22094.109            1    10.473014    385.76329    381.84578    10.134301         5247         2250    1990.7288     22.65632 
      20   0.51765084    10993.487    5659.6926    759.78775    5333.7944    2069.0623    2228.6851    127.52746            0    1716.0201    514097.16   -514904.66    75532.868    22441.569    444.85828    442.48739    895.08904    900.41484    461.62955         5247         2250    4694.2559    1032.0225 
      40     1.057508    8974.2544    5301.5468    711.70832    3672.7076    1474.7471    1730.7372    264.05265            0    1223.3412    513938.44   -514958.61     47744.48    23046.754     290.7455    261.19508    892.39034    913.93108    271.59235         5247         2250    4764.7219    607.17392 
      60     1.575423    7546.6216    4736.6373    635.87182    2809.9843    1199.3657    1765.6734     312.1741            0    540.37549    513954.66   -514962.26    37394.297    23513.836    183.46513    155.16854    829.97615    851.36887     165.4686         5247         2250    4438.5578    369.92285 
      80    2.0704589    6487.6918    4674.0617    627.47133    1813.6301    919.69188    1408.6802    315.49917            0    198.44869    513919.41    -514948.1     33537.56     23919.32     129.4729     99.02011    841.09528    862.18223    106.63618         5247         2250    4494.9325    238.39664 
     100    2.5164089    5635.9322    4322.1488    580.22863    1313.7835    771.77071    1272.2472    310.73547            0   -67.215087    514003.84    -514977.6    22808.197    24313.742    90.723537    61.880652    790.18834    808.31171    65.099907         5247         2250     4214.082    145.53784 
     120    2.9533639    4981.7912    3905.3357    524.27338    1076.4555    642.52304    1270.4419    293.94295            0   -170.80991     514028.4   -514988.04    18290.799    24653.254    60.503472    36.806356    723.18015    736.59396    39.226602         5247         2250    3840.1861    87.695288 
     140    3.3924849    4434.8706    3518.5194    472.34508    916.35125    692.34593    1292.5867      282.905            0   -290.14867    513918.49   -514979.83    14898.864    24930.521     49.22977    24.684921    653.81203    668.39571    25.546458         5247         2250    3484.6388    57.111854 
     160    3.8235509    3964.4984    3366.3866    451.92194     598.1118    621.52408    1123.1411    287.10025            0   -432.12248    513994.94   -514996.47    15842.596    25169.104    38.246789    14.223727    629.33453    645.90616    15.418505         5247         2250    3367.3909    34.469726 
     180    4.2487779    3581.9923    3078.7915    413.31362    503.20082    591.35829    1116.8767    281.32292            0   -497.75491    513995.54   -514984.14    8622.1557    25393.363    30.707622    9.0871886    577.39894    590.45256    9.5782887         5247         2250    3078.2871    21.413294 
     200    4.6685789    3268.8205    2832.0345    380.18763    436.78599    563.81337    1142.7162    268.63989            0   -527.50705    513981.37   -514992.25     7500.939    25583.724    24.928705    5.9401362    532.54277    544.29834    6.2893293         5247         2250     2837.665    14.060472 
     220    5.0913889    3015.5555    2743.5096    368.30357    272.04591     560.1388    1056.3362    248.60057            0    -546.6738    513945.59   -514991.95     8852.561    25744.337    22.913256    4.1099334    516.42572    528.93357    4.3098117         5247         2250    2757.5617    9.6350474 
     240    5.4973998    2734.4561    2573.0628    345.42187    161.39328    573.61643    1039.1036    242.71081            0   -619.01929    513906.92   -514981.94    6968.8038    25893.837    20.410601    2.9374593    484.80372    496.61989    3.1536617         5247         2250    2589.0964    7.0503499 
     260    5.9115849    2569.8015    2512.4766    337.28845    57.324921    532.94818    981.22374    226.26734            0   -618.04816    513927.55   -514992.62    3992.2714    26029.187     18.36189    2.3332888    474.05991    484.57627    2.4495882         5247         2250    2526.3078    5.4763179 
     280    6.3206508    2401.5326    2305.5908    309.51498    95.941833    553.15836    1049.2553    212.80828            0   -612.67403    513881.53   -514988.14    2835.4626    26143.865    16.658139    1.9885367    435.10634    444.76854    2.0850636         5247         2250    2318.7727    4.6613839 
     300     6.728889    2254.6046    2270.1945    304.76319   -15.589916    552.06782    998.85405    209.56745            0   -637.86702    513855.39    -514993.6    2672.7212    26242.534    15.812278    1.6720123    428.67913    437.53635      1.79765         5247         2250    2281.0681    4.0188399 
     320    7.1367269    2106.7702    2222.1895    298.31873   -115.41928    554.71971    941.07451     198.7136            0   -641.33288    513820.97   -514989.57    3240.1871    26334.828    15.812035    1.4512163     419.4713    427.72954    1.5266751         5247         2250    2229.9409    3.4130463 
     340    7.5394399    1974.2496    2117.5094    284.26592   -143.25984    545.86969    994.82843    195.72959            0    -650.1181    513760.67   -514990.24    1709.3528    26421.646    14.267339     1.439531    400.05391     409.0793    1.5228681         5247         2250    2132.7091    3.4045355 
     360    7.9279349    1839.8208    2058.5174    276.34652   -218.69659    561.59132    916.67807    189.51603            0    -651.3698    513760.82   -514995.93    1589.9206    26500.217    13.241914     1.486795    389.17767    396.37366    1.5282459         5247         2250     2066.469    3.4165581 
     380     8.327328    1760.5116    1999.9316    268.48164   -239.42007    546.76986    959.15346    180.31745            0    -671.7754    513734.14   -514988.03    2394.2367    26568.668    13.806494    1.4294164    377.69843    386.24368    1.4925763         5247         2250     2013.657    3.3368149 
     400      8.72368    1663.0887    1941.5853    260.64891   -278.49658    557.71267    904.88922    177.65265            0   -662.10531    513735.31   -514991.95    2385.3042     26631.46    12.554922    1.3109239    367.04288    375.49142    1.3785006         5247         2250    1957.6008    3.0817863 
     420    9.1115549     1573.485    1903.9888    255.60175   -330.50381    561.01054    882.90776    180.15259            0   -650.38654    513687.52    -514991.7    1770.7153    26692.269    12.482721    1.3145608    359.86233     367.9994    1.3592606         5247         2250    1918.5416    3.0387733 
     440     9.511493    1498.7743    1821.9807    244.59254    -323.2064    571.41308    891.58887    185.90291            0   -645.32357    513662.36   -514989.15    580.91804    26744.036    11.718724    1.4088405    344.45936     351.5202    1.4754851         5247         2250    1832.6283    3.2986056 
     460     9.910738    1437.8957    1809.3007    242.89031     -371.405    570.13258     867.7557    187.18218            0   -646.62786    513645.29   -514995.14    1836.5953    26784.539    11.994578    1.3452936    341.90906    349.32349    1.4353342         5247         2250    1821.1759     3.208844 
     480    10.303231    1387.3599    1797.9078    241.36086   -410.54784    566.85478    869.02093    176.33753            0   -650.98273    513623.22      -514995    1201.8859    26820.498    11.984028    1.2830134    339.72828    346.38306    1.3603343         5247         2250    1805.8462    3.0411735 
     500    10.700552    1333.5402    1739.5951    233.53266   -406.05498    573.72539    875.49649    167.74537            0   -640.01528    513609.84   -514992.85    107.29693    26860.148    11.129278    1.2159463    328.90926    335.97514    1.2736249         5247         2250    1751.5852    2.8473254 
     520    11.084326    1296.4485    1734.3176    232.82418   -437.86911    558.53888    866.45766    163.32582            0   -643.18486    513608.52   -514991.53    -15.48221    26894.136    11.391193     1.331341     327.7848    334.73162    1.4003604         5247         2250    1745.1021    3.1306563 
     540    11.478614    1229.8191    1738.7201    233.41519   -508.90101    533.53721    842.28946    163.17754            0   -657.13621     513596.2   -514986.97    1577.3859    26923.559      11.5166    1.3396787    328.57554    336.08972    1.4122303         5247         2250    1752.1825    3.1571926 
     560    11.873194    1175.9596    1693.4829     227.3423   -517.52333    576.83093    827.64557    164.35194            0   -643.36701    513548.16   -514991.14    579.90572    26951.208    11.396349    1.2933401       319.95    326.27837    1.3660184         5247         2250    1701.0317     3.053881 
     580    12.265565    1133.2315    1660.8432    222.96058   -527.61173    582.56788    821.27616    166.46044            0   -630.98976    513520.05   -514986.98     -44.6068    26974.877    11.478183    1.2798015    313.65427    320.67419    1.3633678         5247         2250    1671.8146    3.0479554 
     600    12.671881    1095.3405    1621.3226    217.65511   -525.98204     581.2539    864.52672    159.72628            0   -629.84602    513484.83   -514986.47   -1445.2298    26991.522    10.790531    1.2636501    306.36822    313.53392    1.3539451         5247         2250    1634.5892    3.0268898 
     620    13.066559    1074.0223    1697.8512    227.92873    -623.8289    597.95615    789.66734    154.36364            0   -623.41352    513451.56   -514993.97     320.9545    27002.828     11.11707    1.2565309    320.90749    327.71565    1.3374064         5247         2250    1708.5248    2.9899159 
     640    13.459968    1039.4237    1662.1607    223.13744   -622.73703    597.25861    809.20024      157.193            0   -617.70721    513419.65   -514988.33    -31.57926    27014.459    11.323343     1.284388    313.97329    319.99749    1.3465232         5247         2250    1668.2867    3.0102973 
     660    13.844968    1041.5731    1666.5579    223.72774   -624.98477    589.70713    823.01255    156.95386            0   -609.01725    513404.02   -514989.66   -940.40147    27022.615    10.594011    1.3141143    315.12906    322.00393    1.3712321         5247         2250    1678.7471    3.0655368 
     680    14.244417    1022.2577    1627.9092    218.53933   -605.65147     591.5526    844.34829    151.13003            0   -591.94505    513390.13   -514990.86   -204.11989    27028.378    10.526561    1.3185666    307.74465    314.17806    1.3893524         5247         2250    1637.9475    3.1060467 
     700    14.636925    998.11739    1624.6289    218.09897   -626.51148    595.33021    842.20059    149.76003            0   -604.02125    513383.66   -514993.44    57.179361    27034.986    10.336511    1.2924127    307.19684    313.62079    1.3348555         5247         2250    1635.0422    2.9842129 
     720    15.038151    996.87308    1658.9797    222.71041   -662.10664    607.28579    807.68457    146.17361            0   -589.12567    513366.39   -515000.51    1477.7029    27045.005    10.553908    1.3015822    313.69265    320.44035    1.3793152         5247         2250    1670.5955    3.0836074 
     740    15.430123    1005.6518    1665.9563    223.64699   -660.30452    616.79557    826.60078    143.55733            0   -566.38753    513315.96   -514996.83   -592.88133    27056.087    10.237582    1.2808078    315.16631    321.27122    1.3537433         5247         2250    1674.9272    3.0264387 
     760    15.829926    993.49405    1642.2668    220.46678   -648.77273    615.56346     849.1301    140.39292            0    -577.0168    513323.21   -515000.05    307.46167    27062.817    10.911249    1.3243008    310.33387    316.02833     1.358881         5247         2250    1647.5937    3.0379247 
     780    16.226087    1037.6668    1669.9014     224.1766   -632.23462     631.7501    863.61659    135.36409            0   -569.67249    513307.72   -515001.02    1479.1644     27069.66    11.001587    1.3080965    315.59585    322.32618    1.3773619         5247         2250    1680.4272    3.0792407 
     800    16.621174    1006.8514    1650.3606    221.55334   -643.50928    638.13294    841.31877    136.80757            0   -551.96013    513289.35   -514997.15    950.10999    27081.296    11.376373    1.2831043    311.68719    318.73794    1.3472812         5247         2250    1661.7201     3.011992 
     820    17.026547    973.39671    1642.9347    220.55644   -669.53799    625.99883    824.36932    135.87446            0   -540.55786    513286.24   -515001.46    570.77782    27094.352    10.681721    1.2643875    310.56028    316.73261    1.3465639         5247         2250    1651.2654    3.0103885 
     840    17.419753     972.7208    1643.6248    220.64908   -670.90401    655.57215    832.38118    137.42303            0   -546.58334    513249.29   -514998.99    1058.0099    27105.368    10.670798    1.2953492    310.69733    317.24929    1.3696052         5247         2250    1653.9591    3.0618998 
     860    17.809096    960.70129    1651.8589    221.75447    -691.1576    645.42046    827.80221    138.46294            0   -535.45834    513231.65   -514999.04    899.24762     27120.34    10.728663    1.2693858    312.25195    318.37164    1.3611164         5247         2250    1659.8104    3.0429222 
     880    18.208059    955.66523    1636.6729    219.71582   -681.00763    639.30341    840.07204    137.98494            0   -522.27806    513224.15   -515000.24    569.14634    27141.823    11.048551    1.3251996    309.20209    316.17395    1.4099417         5247         2250    1648.3529    3.1520762 
     900    18.592127    950.86869    1705.1993    228.91517   -754.33058    646.13808      772.624    137.39805            0   -542.28531    513232.81   -515001.01   -99.886677    27161.865    10.989471    1.3263343    322.37158    328.41503    1.3880241         5247         2250     1712.171    3.1030772 
     920     18.98698    939.76701    1627.1683    218.43987   -687.40125     649.7558    835.32619     136.7424            0   -531.32847    513222.47   -515000.36    339.52556    27179.764    10.675256    1.3266065    307.53886    314.15558    1.3856496         5247         2250    1637.8303    3.0977687 
     940     19.38068    935.81392    1640.3989    220.21602   -704.58494     651.4712    837.73653    144.89134            0   -524.23158     513181.5   -514995.95    1232.6229    27197.289    10.408055    1.2156039    310.19107    316.94305    1.2517515         5247         2250    1652.3626     2.798425 
     960     19.76498     945.4904    1659.5316     222.7845   -714.04122    667.13967    817.27121    144.65596            0   -527.08612     513182.1   -514998.12    749.10577    27214.079    10.480528    1.3488955    313.82993    319.37549    1.4305776         5247         2250    1665.0439    3.1982101 
     980    20.161664    915.39068    1649.3184    221.41343   -733.92777    661.91671    818.07622    142.64409            0   -517.39442    513157.82   -514996.99    855.78181    27234.733    11.056949    1.2651003    311.62407    317.91222    1.3371128         5247         2250    1657.4152    2.9892594 
    1000    20.545817     887.5051    1633.2105    219.25102   -745.70544    671.56761    793.65239    134.70677            0   -526.33338    513182.93   -515002.23   -154.32121    27255.105    10.875512    1.2832956    308.61208    315.44837    1.3415768         5247         2250    1644.5701    2.9992393 
    1020    20.933122    856.33509    1628.6443    218.63802   -772.30924    655.75894    800.57641    128.94311            0   -540.54476     513183.2   -515000.25      93.6898    27270.437    10.579132    1.2802573    307.86315    314.03076    1.3846045         5247         2250    1637.1795    3.0954323 
    1040    21.305333     838.3013    1587.0874    213.05919   -748.78607    661.07651    814.33934    131.02147            0   -540.98628    513184.81   -514999.05   -254.44439    27285.584    10.451042    1.3152364    299.94688    306.84109    1.3448989         5247         2250    1599.6966    3.0066661 
    1060    21.681757    776.06386    1569.6974    210.72467   -793.63354    631.69595    807.26534    134.25672            0   -536.71168    513170.24   -515000.38    1192.0041    27301.511    10.174712    1.3584845    296.72961    303.68769    1.4272656         5247         2250    1583.2566    3.1908057 
    1080    22.070773    779.38224    1512.0465    202.98531    -732.6643    658.77426    853.11107    135.37684            0   -512.70232     513129.5   -514996.72    407.27136    27318.632    9.8259066    1.3753378    285.82086    292.26276    1.4124683         5247         2250    1523.6934    3.1577247 
    1100    22.447558    794.44644    1592.1463    213.73833   -797.69986    666.44805    796.30936    129.12129            0   -495.84417    513103.72   -514997.45    -936.2325    27332.349     9.715555    1.3668278    301.23221    307.61746    1.4223629         5247         2250    1603.7442    3.1798453 
    1120    22.830021    784.17193    1570.9865    210.89772   -786.81455    677.32843    818.66797    131.33461            0   -491.33744    513072.28   -514995.09    468.76387    27344.204     10.17058    1.3321936    296.97864    303.02571     1.403255         5247         2250    1579.8054    3.1371274 
    1140    23.206432    782.94033    1568.3922    210.54946    -785.4519    682.47384    800.65231    132.95566            0   -490.30975    513086.35   -514997.57    725.48011    27359.732    10.481747    1.2890014    296.34778    303.60895    1.3842317         5247         2250     1582.846    3.0945987 
    1160    23.597333    784.10098    1635.0119    219.49284   -850.91089    681.83778      779.087    124.53666            0     -501.175    513063.47   -514998.67    297.15188    27378.397    10.514607    1.2926796    309.11215    314.76354    1.3723183         5247         2250    1640.9998    3.0679652 
    1180    23.978859    783.72008    1598.7447    214.62414   -815.02464    683.78565     799.5532    121.68102            0   -510.56923    513091.92    -515001.4   -182.19259    27395.193    10.621104    1.3241923    302.11007    308.05649    1.4134829         5247         2250    1606.0331    3.1599931 
    1200    24.357266    724.58457    1573.6866     211.2602   -849.10204    672.43495     835.5969    122.93776            0   -520.34147    513044.33   -515004.06   -24.032777    27409.398    10.475484    1.3530111    297.36598    303.52908    1.4268786         5247         2250    1582.4297    3.1899405 
    1220    24.738867     715.2374    1558.1766    209.17806   -842.93921    696.84187     812.8519    129.66228            0    -496.8882    513022.02   -515007.43   -879.32832    27423.488    9.8655794    1.2947398    294.65217    300.39131    1.3651695         5247         2250    1566.0711    3.0519832 
    1240    25.128093    677.93609    1549.8255    208.05696   -871.88944    696.92268    809.28221    128.84653            0    -488.5346    512988.86   -515007.27    42.858058      27434.1    9.7659181    1.3244332    293.09301    299.76114    1.3739385         5247         2250    1562.7858    3.0715873 
    1260    25.504755    698.76839    1590.3143     213.4924   -891.54595    695.02529    819.23039    125.05718            0   -476.63201    512950.44   -515004.67   -218.04785    27442.549    10.185397    1.3097922    300.67961    307.56555    1.3930267         5247         2250    1603.4736     3.114261 
    1280    25.885927    703.52493    1597.1652    214.41209   -893.64023    700.89307    804.88361    131.78192            0   -468.02488    512941.25   -515004.43    239.82528    27447.903    10.659709    1.3588954    301.79056    307.93314    1.4216469         5247         2250    1605.3899    3.1782446 
    1300    26.264201     693.1875    1581.8851    212.36082   -888.69764    704.90402    815.78207    129.11171            0   -462.75875    512924.85   -515000.59    621.26494    27453.417    10.197139    1.3346946    299.05776    306.03353    1.3876909         5247         2250    1595.4864    3.1023323 
    1320     26.64171    710.85424    1595.4147     214.1771    -884.5605    704.43071    791.08163    133.10015            0     -452.479     512941.3      -515002    80.597184     27459.69    10.497636    1.2607662    301.52422     307.0942    1.3237812         5247         2250    1601.0162    2.9594552 
    1340    27.031584    713.93601    1590.0155    213.45228   -876.07949    722.20015    812.11187    132.00574            0   -469.24257    512925.81   -514998.97    555.30049     27463.08    10.224093    1.3125119    300.60572     307.0455    1.3822857         5247         2250    1600.7623    3.0902483 
    1360      27.4184    699.01354    1601.8889    215.04624   -902.87539    717.21742    810.17669    127.82997            0   -479.41942     512922.3   -515000.98    352.73762    27466.653    10.884085    1.3341644    302.60055    308.98723    1.3769006         5247         2250    1610.8854    3.0782093 
    1380    27.795729    697.88436    1611.1129    216.28451   -913.22852    717.65657    805.91742     125.5495            0   -471.06786    512910.89   -515002.17   -133.32578    27470.368    11.131475    1.3185983    304.26387    311.43938    1.3728389         5247         2250    1623.6695    3.0691289 
    1400    28.181232    678.20748    1604.7883    215.43546   -926.58084    724.96938    791.71647    128.91768            0   -465.31123    512894.74   -515001.61   -1209.6544    27473.695    10.370713    1.3278792    303.37654    310.45631    1.3779198         5247         2250    1618.5444    3.0804879 
    1420    28.558142    673.98297     1577.957    211.83348   -903.97401    726.36815    808.82032     137.2257            0   -456.60868    512881.47   -515001.25   -1024.8726    27470.423    10.416248    1.3212368    298.21046    305.41758    1.4114059         5247         2250    1592.2752    3.1553497 
    1440    28.935092    637.06083    1549.7998     208.0535   -912.73895    722.99839    816.32904     139.0097            0   -480.48496    512890.39   -515000.98   -1739.5313     27458.99    10.045735    1.2649129    292.96824    298.75227    1.3497224         5247         2250    1557.5261    3.0174496 
    1460    29.313078    602.90315    1555.4007     208.8054   -952.49757    716.58679    780.56416    135.71443            0   -480.16852    512897.15   -515002.34    139.17209    27444.796    10.253248    1.3501787     293.9537    300.84594    1.4399876         5247         2250    1568.4413    3.2192472 
    1480    29.700964    595.19619    1554.5373     208.6895   -959.34111    707.27663    772.13202    130.92618            0    -496.6389    512930.46    -515003.5   -618.98347    27428.058    11.009528    1.2963208    293.46422    299.06854    1.3805006         5247         2250    1559.1749    3.0862576 
    1500     30.07753    566.99451    1516.1653    203.53823   -949.17078    701.44281    803.73295    125.20514            0   -505.80412    512932.61   -515006.35   -743.73482     27409.01    9.8241478    1.2822477    286.61163    293.76545    1.3639315         5247         2250    1531.5276    3.0492154 
    1520    30.464954    547.42616    1550.4052    208.13478    -1002.979    698.05055    769.15663    124.24362            0   -501.69613    512913.65   -515006.38   -620.58554    27391.891    10.147175    1.2314518    293.04092    298.93431    1.2630452         5247         2250    1558.4751    2.8236733 
    1540    30.841403    592.93356    1535.3892    206.11895   -942.45561    696.46015    809.68512    130.68352            0   -521.08534    512951.05   -515009.25   -246.56443    27373.837    10.165558    1.2812947     290.1528    295.86963     1.336536         5247         2250    1542.4976    2.9879701 
    1560    31.222399    612.04295    1585.8701    212.89578   -973.82714    713.08115    783.41717    134.81588            0   -517.39025    512921.36   -515009.11   -245.55084    27352.917    10.388425     1.319978    299.74021    305.66379      1.37651         5247         2250    1593.5588    3.0773362 
    1580    31.611918    617.20859     1568.562    210.57225   -951.35345    720.93945    817.20822    135.06528            0   -510.31857    512895.38   -515009.63    239.70813    27328.158    10.145903    1.3248254    296.52417    302.23685    1.3960113         5247         2250    1575.6927    3.1209335 
    1600     31.98417    577.71041    1547.1068    207.69199   -969.39641    711.06645    814.30287    137.07185            0   -513.67928    512889.19   -515007.35   -1307.7524    27301.358    10.204278    1.3269263     292.3838    298.44786    1.4161288         5247         2250    1555.9391    3.1659081 
    1620    32.376294    566.29868    1533.9468    205.92532   -967.64815    715.06499    805.27547    141.61951            0   -513.65871     512890.7   -515006.64   -924.40989    27269.003    10.130086    1.3309457    289.89133    297.10227    1.4093897         5247         2250    1548.9239    3.1508422 
    1640    32.758089     559.1283     1559.443    209.34807   -1000.3147    705.91386    781.55959    142.79645            0   -501.60558    512879.25   -515008.23    199.61589    27231.963    10.021732    1.2370853    294.82821    301.47217    1.2856701         5247         2250    1571.7061    2.8742537 
    1660    33.151561     563.2595    1533.9639    205.92761   -970.70438    726.09808    792.83097    133.25202            0   -480.54127    512863.62   -515005.97    -724.9419    27197.225    10.105487    1.2418733    289.90513    296.14944    1.3021231         5247         2250    1543.9564    2.9110363 
    1680    33.530892    575.45978    1605.8722    215.58097   -1030.4124    725.22998     769.2125    119.88722            0   -468.74157    512826.66   -515002.66   -901.47475    27164.998    9.9755123    1.2536097    303.75368    309.05483    1.3107688         5247         2250    1611.2378    2.9303647 
    1700    34.029971     593.0106    1584.7901    212.75079   -991.77949    730.74613     807.1191    117.94084            0    -447.8347    512801.53   -515001.28     714.9327    27130.366    10.328374    1.2518072    299.55877    306.03171    1.3232996         5247         2250     1595.477    2.9583786 
    1720    34.465665    595.40215    1586.9043    213.03461   -991.50212    735.93085    828.83337    122.89318            0   -446.93347    512770.77   -515002.99     2084.295    27101.568      10.7775    1.2474134    299.77195    306.49668    1.3024804         5247         2250     1597.901     2.911835 
    1740    34.896748    611.03624    1632.6126    219.17075   -1021.5764    749.08147    788.20051    123.75659            0   -443.45445    512763.71   -515002.87    -469.3327    27081.773    10.587253    1.3236522    308.62084    315.21382    1.3728393         5247         2250    1643.3473    3.0691299 
    1760    35.338499    623.19343    1639.1205    220.04441   -1015.9271    739.36433    812.26791    128.78198            0   -439.87678    512744.17   -515000.63    24.243108    27066.225    10.817082    1.3111977    309.77071    316.35839    1.3865229         5247         2250    1649.3145    3.0997211 
    1780    35.769053    608.73424    1626.8586     218.3983   -1018.1244    754.15168    794.46015    132.52496            0   -444.48932    512745.61   -515000.38   -326.85872    27048.033    10.850113     1.245614    307.40458    314.32247    1.3143961         5247         2250    1638.7003    2.9384739 
    1800    36.177609    598.92549     1621.391     217.6643   -1022.4655    742.97029     815.9299    134.41616            0   -441.37598     512724.9    -514999.3    314.55549    27028.474    10.951735    1.2510354    306.31231     312.7563    1.3270026         5247         2250    1630.5352    2.9666571 
    1820    36.567498    575.77134     1584.968    212.77467   -1009.1966    761.38261    805.51126    133.28082            0   -441.58238    512734.71    -515002.5    677.62101    27016.234    9.8436113    1.2258377    299.80048    306.41777     1.300703         5247         2250    1597.4897    2.9078614 
    1840    36.945533    588.78902    1606.0468    215.60441   -1017.2578    732.29333    821.57723    132.78777            0   -455.88259    512754.74   -515002.77   -111.67021    27008.179    10.551782    1.2997171    303.54039    310.54325    1.3537347         5247         2250    1618.9976    3.0264196 
    1860    37.337275    563.10094     1614.732    216.77036   -1051.6311    739.85715     796.9448    129.94834            0   -451.00119    512733.83   -515001.21   -908.69715    26998.723    10.629609    1.3105567    305.17299    312.57143    1.3687305         5247         2250    1629.5714    3.0599442 
    1880    37.721037    532.13432    1594.6483    214.07422    -1062.514    744.42554    765.66618    132.93069            0    -447.6689    512741.11   -514998.98    1541.2482    26986.293    10.526021    1.3086885    301.36505    307.87247    1.4017384         5247         2250    1605.0737    3.1337369 
    1900    38.115178    542.35855    1558.8562    209.26929   -1016.4976    734.00026    816.31271    144.64186            0   -435.09199    512720.72   -514997.08    662.52417    26981.128    10.239918    1.3430352    294.62221    300.26666    1.3923299         5247         2250    1565.4212    3.1127031 
    1920    38.496893    517.80018    1572.0222    211.03677    -1054.222    750.77749    769.44955    136.52703            0   -434.86765    512722.18   -514998.29    -839.7633    26980.363    10.109961    1.2770448    297.20327    303.56745    1.3622504         5247         2250    1582.6297    3.0454573 
    1940    38.886624    484.07676    1541.5711    206.94884   -1057.4943    738.67725    806.52836    130.65932            0   -456.80554    512724.49   -515001.04    431.18709    26976.346    10.307276    1.3771918    291.27787    298.02564    1.4826183         5247         2250    1553.7378    3.3145526 
    1960    39.269194    476.55343    1541.3876     206.9242   -1064.8341    753.87435    766.94713    129.67341            0   -458.66824    512744.09   -515000.75    998.68207    26971.042    10.058161    1.3132906    291.34935    298.27873    1.3931051         5247         2250    1555.0573    3.1144363 
    1980    39.668888    492.23164    1555.2554     208.7859   -1063.0238    739.02834    785.23858    127.44329            0   -449.51807    512736.23   -515001.45    -247.0478    26968.638    10.303102    1.2454059    293.90448    300.21626    1.3232642         5247         2250    1565.1585    2.9582993 
    2000    40.066723    524.48066    1579.7207    212.07025   -1055.2401    742.23969    802.61003    126.17763            0   -438.46684    512713.17   -515000.97   -1275.5378    26968.116    10.486589    1.3431475    298.51864    304.70508    1.4095264         5247         2250    1588.5606    3.1511478 
Loop time of 40.0668 on 4 procs (4 MPI x 1 OpenMP) for 2000 steps with 3000 atoms

Pair  time (%) = 19.7883 (49.3884)
Bond  time (%) = 1.96338 (4.90026)
Kspce time (%) = 6.33141 (15.8021)
Neigh time (%) = 0.509283 (1.27109)
Comm  time (%) = 0.811633 (2.0257)
Outpt time (%) = 0.00746036 (0.0186198)
Other time (%) = 10.6553 (26.5938)

Nlocal:    750 ave 789 max 710 min
Histogram: 1 0 0 0 1 1 0 0 0 1
Nghost:    6081.5 ave 6174 max 6007 min
Histogram: 1 0 0 1 1 0 0 0 0 1
Neighs:    179398 ave 191603 max 171896 min
Histogram: 1 1 0 0 1 0 0 0 0 1

Total # of neighbors = 717591
Ave neighs/atom = 239.197
Ave special neighs/atom = 10.5
Neighbor list builds = 51
Dangerous builds = 0
