LAMMPS (15 May 2015)
WARNING: OMP_NUM_THREADS environment is not set. (../comm.cpp:89)
  using 1 OpenMP thread(s) per MPI task
units real
boundary p p p

atom_style drude
bond_style harmonic
angle_style harmonic
dihedral_style opls
special_bonds lj/coul 0.0 0.0 0.5

pair_style hybrid/overlay lj/cut/coul/long 8.0 8.0 thole 2.600 8.0
kspace_style pppm 1.0e-4

comm_modify vel yes
read_data data.ethanol
  orthogonal box = (-14.0138 -14.0278 -14.0189) to (14.0169 14.0177 14.0857)
  1 by 2 by 2 MPI processor grid
  reading atoms ...
  3000 atoms
  scanning bonds ...
  5 = max bonds/atom
  scanning angles ...
  6 = max angles/atom
  scanning dihedrals ...
  9 = max dihedrals/atom
  reading bonds ...
  2750 bonds
  reading angles ...
  3250 angles
  reading dihedrals ...
  3000 dihedrals
  5 = max # of 1-2 neighbors
  6 = max # of 1-3 neighbors
  10 = max # of 1-4 neighbors
  11 = max # of special neighbors
Rebuild special list taking Drude particles into account
Old max number of 1-2 to 1-4 neighbors: 11
New max number of 1-2 to 1-4 neighbors: 11 (+0)


pair_coeff    1    1 lj/cut/coul/long 0.065997 3.500000 # C3H C3H
pair_coeff    1    2 lj/cut/coul/long 0.065997 3.500000 # C3H CTO
pair_coeff    1    3 lj/cut/coul/long 0.044496 2.958040 # C3H H
pair_coeff    1    4 lj/cut/coul/long 0.105921 3.304542 # C3H OH
pair_coeff    1    5 lj/cut/coul/long 0.000000 0.000000 # C3H HO
pair_coeff    2    2 lj/cut/coul/long 0.065997 3.500000 # CTO CTO
pair_coeff    2    3 lj/cut/coul/long 0.044496 2.958040 # CTO H
pair_coeff    2    4 lj/cut/coul/long 0.105921 3.304542 # CTO OH
pair_coeff    2    5 lj/cut/coul/long 0.000000 0.000000 # CTO HO
pair_coeff    3    3 lj/cut/coul/long 0.029999 2.500000 # H H
pair_coeff    3    4 lj/cut/coul/long 0.071413 2.792848 # H OH
pair_coeff    3    5 lj/cut/coul/long 0.000000 0.000000 # H HO
pair_coeff    4    4 lj/cut/coul/long 0.169996 3.120000 # OH OH
pair_coeff    4    5 lj/cut/coul/long 0.000000 0.000000 # OH HO
pair_coeff    5    5 lj/cut/coul/long 0.000000 0.000000 # HO HO
pair_coeff    *  6*8 lj/cut/coul/long 0.000000 0.000000 # No lj for drudes
pair_coeff    1    1 thole 2.051000
pair_coeff    1    2 thole 1.580265
pair_coeff    1    4 thole 1.416087
pair_coeff    1    6 thole 2.051000
pair_coeff    1    7 thole 1.580265
pair_coeff    1    8 thole 1.416087
pair_coeff    2    2 thole 1.217570
pair_coeff    2    4 thole 1.091074
pair_coeff    2    6 thole 1.580265
pair_coeff    2    7 thole 1.217570
pair_coeff    2    8 thole 1.091074
pair_coeff    4    4 thole 0.977720
pair_coeff    4    6 thole 1.416087
pair_coeff    4    7 thole 1.091074
pair_coeff    4    8 thole 0.977720
pair_coeff    6    6 thole 2.051000
pair_coeff    6    7 thole 1.580265
pair_coeff    6    8 thole 1.416087
pair_coeff    7    7 thole 1.217570
pair_coeff    7    8 thole 1.091074
pair_coeff    8    8 thole 0.977720

group gETHANOL molecule 1:250
3000 atoms in group gETHANOL
group gATOMS type 1 2 3 4 5
2250 atoms in group gATOMS
group gDRUDES type 6 7 8
750 atoms in group gDRUDES


neighbor 2.0 bin

variable vTEMP   equal 300.0
variable vTEMP_D equal 1.0
variable vPRESS  equal 1.0

velocity gATOMS  create ${vTEMP} 12345
velocity gATOMS  create 300 12345
velocity gDRUDES create ${vTEMP_D} 12345
velocity gDRUDES create 1 12345

fix fSHAKE all shake 0.0001 20 0 b 2 3 5
  250 = # of size 2 clusters
  250 = # of size 3 clusters
  250 = # of size 4 clusters
  0 = # of frozen angles

compute cTEMP_DRUDE gDRUDES temp
compute cTEMP_DRUDE_DRUDE gDRUDES temp/drude
compute cTEMP_ATOM gATOMS temp


fix fDTDIR all drude/transform/direct
fix fNPT gATOMS npt temp ${vTEMP} ${vTEMP} 100 iso ${vPRESS} ${vPRESS} 500
fix fNPT gATOMS npt temp 300 ${vTEMP} 100 iso ${vPRESS} ${vPRESS} 500
fix fNPT gATOMS npt temp 300 300 100 iso ${vPRESS} ${vPRESS} 500
fix fNPT gATOMS npt temp 300 300 100 iso 1 ${vPRESS} 500
fix fNPT gATOMS npt temp 300 300 100 iso 1 1 500
fix fNVT gDRUDES nvt temp ${vTEMP_D} ${vTEMP_D} 100.0
fix fNVT gDRUDES nvt temp 1 ${vTEMP_D} 100.0
fix fNVT gDRUDES nvt temp 1 1 100.0
fix fDTINV all drude/transform/inverse

thermo_style custom step cpu etotal ke temp pe ebond eangle edihed eimp evdwl ecoul elong press vol c_cTEMP_DRUDE c_cTEMP_DRUDE_DRUDE c_cTEMP_ATOM
thermo 20

timestep 0.5
run 2000
PPPM initialization ...
  G vector (1/distance) = 0.379738
  grid = 30 30 30
  stencil order = 5
  estimated absolute RMS force accuracy = 0.0289979
  estimated relative force accuracy = 8.73262e-05
  using double precision FFTs
  3d grid and FFT values/proc = 17908 7200
Neighbor list info ...
  2 neighbor list requests
  update every 1 steps, delay 10 steps, check yes
  master list distance cutoff = 10
Memory usage per processor = 13.7041 Mbytes
Step CPU TotEng KinEng Temp PotEng E_bond E_angle E_dihed E_impro E_vdwl E_coul E_long Press Volume cTEMP_DR cTEMP_DR cTEMP_AT 
       0            0    13868.828    2013.3852    270.28772    11855.443     3145.896    51.880809 0.00019113234            0    8481.5109    514734.14   -514557.98    170217.61    22094.109            1    10.473014    385.76329 
      20   0.56247115    11387.071     5998.259    805.23873     5388.812     2039.515    2312.2561    131.68769            0    1709.6213    514098.39   -514902.66    75850.126    22409.141    426.57332    419.44222    967.86058 
      40    1.1457961    9857.9283     6046.761    811.74991    3811.1673    1443.5478    1832.1789    275.53871            0    1288.4702    513935.17   -514963.74    48699.062    22981.674    266.76483    228.92281     1045.601 
      60    1.7242692    8956.9262    5856.3761    786.19161    3100.5501    1194.1965    1952.4522    329.38571            0    622.05594    513972.53   -514970.07    39826.791     23442.63    177.97886    137.53374     1047.105 
      80    2.2363381    8283.3711    6129.7003    822.88412    2153.6708    905.34674    1609.9061    326.43196            0    294.22533    513960.02   -514942.26    37846.396    23837.248    137.52229    92.026873    1116.8572 
     100     2.740355     7736.652     5957.953    799.82784     1778.699    836.23111    1450.5554    326.98882            0    72.297395    514055.88   -514963.26    27619.265    24229.759    105.73256    62.502166    1097.5278 
     120    3.2262781    7299.2951    5632.8266    756.18111    1666.4685    684.76893    1581.5302    329.37102            0    5.8302551    514031.43   -514966.47     22158.16    24583.793    83.716887    44.164917    1044.5927 
     140     3.706491    6931.1934    5409.2401    726.16565    1521.9533     734.1666    1534.7426    318.94681            0   -78.363096    513968.25   -514955.79     20342.81    24884.973     74.91066    32.034924    1005.4773 
     160    4.1766472    6580.1112    5328.1024    715.27328    1252.0088    714.10736    1367.5633    319.51919            0   -232.85731       514056   -514972.32    23890.097    25154.301    66.421597    23.781002    993.54955 
     180    4.6452951    6259.2171    5068.8802    680.47389    1190.3369    689.52928    1378.4228     316.0293            0   -300.63654     514059.6   -514952.61    14920.832    25416.937    56.279972    17.905985     948.1707 
     200    5.1072452    5994.5296     4801.542    644.58496    1192.9877    627.20399    1387.2278    308.30144            0   -277.28752    514112.75   -514965.21    11389.285    25645.369    48.998365     14.27958    900.01032 
     220    5.5607681    5748.3395    4730.4324    635.03884    1017.9071    587.61154    1356.2882    300.49755            0   -352.75296     514096.8   -514970.53    13428.719    25842.583    46.013298    11.516579      887.649 
     240     6.013597    5510.3898    4568.6954    613.32638    941.69445    570.65899    1372.2039    294.58045            0   -453.80046    514122.16   -514964.11    11953.108    26031.924    45.783645    9.6846514    856.72422 
     260    6.4611731    5286.0224    4381.3491      588.176    904.67327    559.74819    1287.0911    283.44191            0   -417.79827    514168.39    -514976.2    9326.5679    26214.155    40.495903     7.730666     823.0534 
     280    6.9022841    5088.0953    4186.6728     562.0416    901.42254    628.17356    1278.0729    286.74833            0   -385.68409    514057.09   -514962.98    6265.9582    26379.585    38.046568    6.6814333    786.76105 
     300     7.343538    4900.0336    4091.1324    549.21574    808.90122     607.3598    1216.9131    285.40423            0   -387.28297    514058.21   -514971.71    9972.6123    26526.322    36.491435    5.4785087    769.10122 
     320    7.7813711     4712.731     3988.678    535.46171    724.05306    582.68842    1236.1738    282.21188            0   -427.03587    514024.28   -514974.27    10580.312    26678.566    34.014985    4.7176495    750.50977 
     340     8.212893    4535.0909    3830.7488    514.26044     704.3421    552.87882     1218.298    282.87622            0   -412.97303    514022.21   -514958.95    8161.7253        26840    32.090307    4.0536283    721.04127 
     360    8.6467111    4375.9457    3575.8414    480.04029     800.1043    538.50586    1263.8466    287.01374            0   -398.67289    514076.48   -514967.07     5826.046    26995.991    28.844012    3.4700161    673.53717 
     380     9.085377    4228.9964    3490.7327    468.61484    738.26364     532.3203    1224.9636    281.56157            0   -432.47153    514087.47   -514955.58    7339.4484    27138.125    27.742547    2.9732212    657.68401 
     400      9.51195    4084.6497    3410.5955    457.85679    674.05419    562.88951    1204.3318    267.87675            0   -484.20309    514090.31   -514967.15    8232.6472    27278.891    27.628753    2.7698954    642.36145 
     420    9.9438961    3947.2247    3398.7188    456.26239    548.50592    545.51902    1091.5547    256.69994            0   -462.48763    514084.48   -514967.26     4745.672    27423.114    26.456597    2.4209051    640.58532 
     440    10.376665    3825.8285    3243.8786     435.4758    581.94997     542.6348    1155.7893    267.14742            0   -487.36597    514074.14    -514970.4    2156.1847    27551.508    25.479929     2.174588    611.30335 
     460    10.807685    3708.1265    3180.2973    426.94031    527.82922    499.73568    1117.5387    254.81874            0   -484.94397    514120.62   -514979.94    5140.5107    27657.636    24.562192    1.9349632    599.50071 
     480     11.24333    3592.8217    3065.5879     411.5411    527.23384    495.25629     1137.366    253.64518            0   -502.50721    514117.01   -514973.54    6721.2201    27763.984    22.634921     1.735316    578.32341 
     500    11.662654    3481.1179    2970.8353      398.821    510.28257    512.60208    1059.5181    266.93736            0   -478.20934    514122.49   -514973.06    4723.8215    27881.358    22.481796    1.5883997    560.21431 
     520    12.088253    3384.5175    2940.1762    394.70516    444.34128    493.63908    1017.6465    271.73887            0   -509.50808    514143.78   -514972.96    1864.8326    27994.626    22.005432    1.4434787    554.53752 
     540    12.510359    3291.4476    2808.7371    377.06006    482.71053    516.63631    1071.1395    260.88181            0   -530.39303    514136.34    -514971.9     4429.458    28091.695    21.124712    1.4147802    529.70307 
     560    12.935555    3199.3941    2809.3868    377.14728    390.00723    465.24704    1031.2762    249.55689            0   -532.53409     514148.3   -514971.84    5691.3539    28191.417    19.959529    1.2054103    530.32669 
     580    13.347961    3113.3169    2661.7441    357.32692     451.5728    493.72854     1085.752    254.50112            0   -521.44775    514113.03   -514973.99    1876.2754    28298.755    18.562952    1.1534174    502.60511 
     600    13.766894    3036.0997    2708.8595    363.65195    327.24015    481.58136    989.68553    261.24694            0   -521.11503    514095.75   -514979.91    1311.0605     28392.37     19.10369    1.0958239    511.41084 
     620    14.182376    2961.8099    2641.4052    354.59652    320.40473    504.77525    962.55174    269.03158            0   -507.35069     514074.5   -514983.11    3041.1477    28471.378    18.710727     1.033216    498.64058 
     640    14.588064    2887.5193    2565.9955    344.47311    321.52387    510.75852    1009.0535    272.14376            0   -497.33106    514002.57   -514975.67    4783.7251    28552.133    18.735273   0.95237793    484.16557 
     660    14.993586    2816.9699    2563.1408    344.08988    253.82916    509.40372    955.21124    265.15281            0   -498.33611     513998.9    -514976.5      2112.26    28642.873    18.440658   0.90726634    483.74418 
     680    15.404151    2752.3657    2521.4979    338.49952    230.86775     506.2792    964.11736    241.20492            0   -507.67245    514003.83   -514976.89      1295.55    28726.823    17.938451   0.83386936    475.97164 
     700    15.807181    2687.7036    2537.4686    340.64351    150.23499    486.68493    958.95842    224.74322            0   -505.35992    513960.46   -514975.25    3380.6826    28801.581      18.5821   0.83177704    478.75938 
     720    16.214398    2623.5613    2461.9929    330.51125     161.5684    509.65535    950.78522    218.84609            0   -473.87415     513928.4   -514972.25    3607.1571    28881.419    17.340111   0.76961067     464.8141 
     740    16.621789    2563.1058    2418.0574    324.61311    145.04836    514.37481    949.44814    217.57273            0   -458.00055    513891.51   -514969.86    2258.5397    28967.652    17.147378   0.71732669    456.46928 
     760     17.03023    2509.4745    2399.7902    322.16081    109.68437    532.25957    912.70244    218.63694            0   -487.20967    513907.69    -514974.4     428.0698    29049.214    16.603274   0.69796103    453.19841 
     780    17.481732     2457.343    2418.7953    324.71216    38.547706    537.80441    879.19066    215.42544            0    -497.8467    513876.39   -514972.42    2167.7533    29117.719    17.003621   0.69111646    456.67238 
     800    17.936722    2405.9175    2336.6216    313.68072    69.295946    527.74128    913.60292    215.56038            0   -479.55471    513866.61   -514974.66    2614.2785    29185.863    16.317734   0.68773149    441.20419 
     820    18.378739    2357.4395    2303.7163    309.26333    53.723213    515.83926    922.10084    207.43069            0   -476.33795    513858.78   -514974.09    1059.0173    29256.823    15.668974   0.63107972    435.17039 
     840    18.824368    2313.4255    2291.6511    307.64364    21.774363    529.43186    908.35027    205.57265            0   -487.88862    513839.16   -514972.85    399.99924    29320.447    15.217562    0.6097658    433.04945 
     860     19.23814    2271.2977    2272.7801    305.11029   -1.4823553    515.95949    868.27128     206.5274            0   -465.89667    513849.16    -514975.5     2370.229    29375.635     15.99814    0.6152774    429.09549 
     880     19.64281    2230.3751    2237.6421    300.39318   -7.2669719    513.60501    881.31231    195.59278            0   -455.97131    513831.07   -514972.88    3051.5218    29436.407    15.490281    0.6103675    422.57309 
     900    20.055342    2192.7457    2195.6572     294.7569   -2.9115041    510.82893    885.36725    196.30061            0   -449.53043    513830.67   -514976.55    999.95486    29505.222    15.167846   0.59675804    414.65797 
     920    20.452506    2159.9268    2156.3759    289.48356    3.5509015    519.68126     861.6654     207.6102            0   -448.67782    513838.27      -514975    498.88342    29568.135    14.377848   0.60788017    407.46164 
     940     20.85753    2129.6568    2181.1447    292.80866   -51.487929    502.28193    851.70369    215.00933            0   -440.23269    513797.17   -514977.42    1874.7132      29623.5    14.808082   0.62589767    412.02836 
     960      21.2515    2100.7096    2202.9097    295.73052   -102.20013    510.08111    826.67362    222.12096            0   -472.77825    513796.61    -514984.9     2130.701    29681.657    14.760577   0.62740241     416.2235 
     980    21.658765    2074.6556    2155.7942    289.40547    -81.13854    515.45087    841.78843    221.56848            0   -511.25423    513836.48   -514985.17   -442.76092    29742.341    14.107352   0.61615151     407.4659 
    1000    22.067208    2052.4814    2132.7669    286.31416   -80.285483     490.3921    878.92361    219.30155            0   -530.01844    513848.98   -514987.86   -843.27792    29789.031    14.253701   0.60409743    402.98632 
    1020    22.472677    2031.9195    2114.2495    283.82828   -82.329997    490.98238    873.62667    223.16035            0   -530.81357    513844.62   -514983.91    1073.2841    29821.895    14.226277   0.60762008     399.4462 
    1040    22.855268    2012.7109    2108.4945    283.05571   -95.783635    499.07116    812.22433    230.46305            0   -518.88902    513862.89   -514981.55    1284.4747    29855.996    14.429042   0.61893815    398.25549 
    1060    23.247042    1996.8942    2129.3948    285.86148   -132.50063    485.02548    795.18752    225.52946            0   -504.53813    513846.44   -514980.14   -21.929647    29892.845    14.121015     0.608952    402.39634 
    1080    23.636527     1984.693    2072.6335    278.24154   -87.940516    493.87551    826.65047    208.48046            0   -484.62235    513845.14   -514977.46     13.68405    29923.502    14.187611   0.64065311    391.48032 
    1100    24.033277    1975.4652    2058.3323    276.32167   -82.867105    507.16192    854.55073    200.02556            0   -486.52281     513819.4   -514977.48    1376.4035    29949.771     13.90044   0.61881679    388.86016 
    1120     24.41575    1968.5461    2100.7864    282.02093   -132.24033    507.20061    829.65207     190.2021            0   -494.24846    513814.44   -514979.48     833.0915    29981.048    14.221278   0.62868653    396.86597 
    1140    24.809844    1964.3663    2106.8868    282.83988    -142.5205    499.86695    832.81792      196.393            0   -488.43842    513795.57   -514978.73   -396.64694    30013.076    14.091754   0.66496775    398.09156 
    1160     25.21036     1962.785    2076.2184    278.72279   -113.43337    497.97575     846.8487    207.13924            0   -480.78991    513787.84   -514972.45    69.986155     30037.47    14.342312   0.66995608    392.10169 
    1180    25.601553    1963.9238    2057.6925    276.23577   -93.768709    522.03095    815.26581    215.88601            0   -463.59967    513786.38   -514969.73    1275.3463     30058.94    13.985409   0.70107164    388.70104 
    1200    26.007188    1968.2111    2083.4661    279.69576   -115.25505    512.28064    850.54984    204.09181            0   -467.07984     513758.8    -514973.9    1178.1655    30086.211    14.371176   0.73886803    393.47953 
    1220    26.397566    1975.6693    2086.5279    280.10679   -110.85858    516.84071    833.09355    195.28111            0   -459.47749    513777.43   -514974.02    851.80366    30118.435    14.622613   0.75277747    393.95914 
    1240    26.795599    1985.7391    2094.4227    281.16663   -108.68359    527.84009    816.11852    186.80549            0   -437.51342    513765.48   -514967.41    959.78212      30152.7    14.219494   0.81097656    395.64609 
    1260    27.193332    1998.3209    2108.2424    283.02186   -109.92154    508.16523    867.27128    180.00085            0   -456.07908    513759.29   -514968.57    1279.9868    30189.335    14.743711   0.86439973    398.07238 
    1280     27.58069    2012.8629    2070.4791    277.95232   -57.616224    510.54091    876.82943    191.47479            0   -446.19986    513779.73   -514969.99    1492.7495    30230.685    13.833169   0.81708817    391.21887 
    1300    27.981037      2030.01    2161.4664    290.16694   -131.45635    495.80292    838.05083     211.3753            0   -457.43907     513755.7   -514974.94    427.58519    30276.655    15.128773   0.90848022    408.11648 
    1320    28.372213    2050.1635    2107.5172    282.92451   -57.353741    535.34147    868.28382    225.17805            0   -451.09882    513738.22   -514973.27   -123.99438    30319.153    14.839054   0.98427289    397.89245 
    1340     28.76914    2071.7954    2145.5186    288.02602   -73.723176    521.92662    886.57379    213.80068            0   -466.82741    513743.65   -514972.85    789.13349    30355.112    14.645277    1.0461529    405.26455 
    1360    29.158749    2094.3469    2124.4067    285.19184   -30.059776    541.60335    905.62331    197.93755            0   -464.19553    513762.49   -514973.52      1276.65    30391.526    15.002956    1.0563853    401.06187 
    1380    29.555894     2117.917    2195.7614    294.77088   -77.844338    514.67599    877.21735    184.01623            0   -450.15704    513767.59   -514971.18    986.44584    30432.686    15.301032     1.095421    414.62091 
    1400     29.94676    2142.3492    2217.6378    297.70769   -75.288562    521.94423    885.83016    187.86735            0   -449.56824    513752.93   -514974.29     76.99858    30475.082    15.436715    1.1135074    418.75896 
    1420     30.34109    2166.7681    2219.5213    297.96055   -52.753258    509.63629    900.74134    209.84929            0   -460.86005    513759.92   -514972.04     1173.705    30513.374    14.919681    1.1547029    419.34166 
    1440     30.72285    2190.5043     2207.341     296.3254    -16.83673    535.81096    907.60806     223.9022            0   -449.67137    513739.45   -514973.94    1418.4202     30555.26    15.546398    1.2722324    416.73695 
    1460    31.120009    2214.9081    2214.0704    297.22878   0.83773633    538.99277    919.78152    225.29137            0   -445.10377    513736.49   -514974.61    124.54373     30601.49    15.449644    1.2360474    418.06915 
    1480    31.510943    2238.7289    2276.3248    305.58615   -37.595867    536.20334    882.53887    215.69256            0   -439.18905     513742.5   -514975.34    700.22291     30643.86    15.824058     1.332129    429.84996 
    1500    31.906675    2261.7503    2262.1012    303.67671  -0.35098144    540.31467     913.1685    217.45854            0   -448.74718    513750.81   -514973.35     498.2791    30684.657    15.596801    1.3536954    427.21903 
    1520    32.301385    2283.1524    2266.8461    304.31369    16.306249    517.62926    929.82073    215.12776            0   -446.91677    513768.77   -514968.12    1877.3804    30725.601    16.038485    1.3661312    427.94001 
    1540    32.688484    2303.3653    2256.6918    302.95052    46.673473    510.60195    932.16961     215.2658            0   -431.41894    513787.09   -514967.03    976.92964    30774.801    15.750993    1.3570239    426.11541 
    1560    33.078286    2323.6554    2250.1949    302.07834    73.460478    525.13219    981.30627    209.30742            0   -438.92875    513766.14    -514969.5    530.23478    30825.668     15.86623    1.4557575    424.81988 
    1580     33.45953    2342.3352    2341.0735    314.27836      1.26171    540.23094    903.55996    212.99247            0   -432.74449    513750.15   -514972.93    1419.0047    30874.877    16.959561     1.481219    441.78326 
    1600    33.851546    2358.7483    2312.2912    310.41448    46.457095    534.68443    930.74814    214.39621            0   -415.11474    513753.49   -514971.74    1103.6085    30928.104    16.448998    1.5036834    436.48113 
    1620    34.243004     2373.751    2330.2725    312.82838    43.478486    522.32019    949.07035    207.00614            0   -431.30849    513769.43   -514973.04    1233.9925    30983.952    16.575016    1.4565926    439.87618 
    1640    34.626747    2387.3692     2339.124    314.01666    48.245156    534.73811    963.64767    207.12953            0    -458.8504    513775.99   -514974.41   -163.62392    31040.829    17.005667    1.5787159    441.38958 
    1660    35.024792    2399.8311    2341.8579    314.38367    57.973174    510.42454    1006.4279    212.81042            0   -445.04044    513753.25    -514979.9    495.58379    31090.079    17.096323    1.5120629    441.87516 
    1680    35.412349    2408.7778    2352.4264    315.80244    56.351368    535.12844    1006.8885    214.32576            0   -453.30837    513737.78   -514984.47    1063.1549     31135.97    16.649515    1.5121404    444.09366 
    1700    35.807647    2414.3777    2404.8002    322.83339    9.5774674    541.08696    946.32493    207.90608            0   -441.39622    513736.83   -514981.18    928.05567    31183.846    16.880168    1.4597004    454.04082 
    1720     36.19171     2417.037    2342.4407    314.46191     74.59628    565.42086    961.85444    211.28237            0   -438.29145    513751.64   -514977.31    217.81619    31232.384    16.745229    1.4691003    442.13729 
    1740     36.58376    2417.4346    2410.6052    323.61269    6.8293142    523.41374    929.28538    213.99796            0   -425.18255    513737.31   -514971.99    448.76953    31276.626    17.202796    1.4178415    455.01613 
    1760     36.97875    2414.7645    2335.4827    313.52783    79.281765    567.90141    990.57771    213.89756            0   -419.68934    513697.97   -514971.37    1441.9062    31319.102    15.859808     1.429199    441.18185 
    1780    37.375252    2409.1116    2376.5903    319.04634    32.521254    528.17553    977.29549    210.02457            0   -424.21887    513712.66   -514971.42    688.65062    31366.881    16.682291    1.3819301    448.71456 
    1800    37.762989    2401.4301    2323.7789    311.95664    77.651203      576.684    1016.8429    208.94832            0   -417.48935    513663.74   -514971.08   -444.41367    31413.321    16.124426    1.3558678    438.82359 
    1820    38.156632    2391.3124    2393.3016    321.28975   -1.9891762     543.4749    946.81724    217.09007            0   -415.59545    513677.89   -514971.67    608.81203    31450.847    16.964699    1.3203378    451.79905 
    1840    38.551051    2377.9173    2323.5273    311.92287    54.389981    559.71587    947.76757    232.90307            0   -409.85054    513696.17   -514972.31    1545.9952    31488.423    15.806266    1.2797787    438.91158 
    1860    38.939298     2362.514    2348.6081    315.28986    13.905904    530.44695    978.99083    223.57517            0   -430.21908    513683.46   -514972.35    529.97414    31533.196    16.138106    1.2429744    443.58028 
    1880    39.330669    2346.3262    2280.7658    306.18234    65.560377    576.33705    993.00627    203.60418            0   -416.07475    513682.22   -514973.53   -342.73187    31576.246    15.904836     1.212978     430.6672 
    1900    39.725948    2328.1219    2304.2976    309.34137    23.824336    540.92506    981.44963    198.88766            0   -410.23827    513685.08   -514972.28    1106.3388    31612.449    16.012941    1.1225029    435.13459 
    1920    40.107076    2308.0894    2328.5241    312.59367   -20.434741    569.39145     902.3343    200.29295            0   -397.82343    513677.57    -514972.2    1002.3192    31652.167    15.960455    1.0652388      439.804 
    1940    40.501828    2287.5247     2301.812    309.00769    -14.28734    563.32385    931.87087    202.99386            0    -393.8259    513650.15    -514968.8    657.72024    31695.329    16.110708    1.1366593    434.61595 
    1960    40.894081    2266.6484    2236.4034    300.22689    30.245017    574.46002    949.91479    220.32078            0   -379.23304    513632.98    -514968.2    548.84432    31738.674    15.396813    1.0558235    422.37552 
    1980    41.275226    2245.9113     2216.695    297.58112    29.216327    559.34113    960.66574    224.26431            0   -375.47738    513624.82    -514964.4    1066.4608    31781.633    15.114512   0.99399923     418.7161 
    2000    41.671281    2225.1585     2233.646    299.85672   -8.4875117    536.61351    943.69861    216.15108            0   -406.24315    513667.99    -514966.7    1026.7217    31828.158    15.221787   0.98605377    421.92157 
Loop time of 41.6714 on 4 procs (4 MPI x 1 OpenMP) for 2000 steps with 3000 atoms

Pair  time (%) = 18.2747 (43.8542)
Bond  time (%) = 1.97601 (4.74188)
Kspce time (%) = 6.10162 (14.6422)
Neigh time (%) = 0.659435 (1.58246)
Comm  time (%) = 0.686582 (1.64761)
Outpt time (%) = 0.00910836 (0.0218576)
Other time (%) = 13.964 (33.5097)

Nlocal:    750 ave 782 max 717 min
Histogram: 2 0 0 0 0 0 0 0 0 2
Nghost:    5456.75 ave 5539 max 5390 min
Histogram: 2 0 0 0 0 0 0 1 0 1
Neighs:    147829 ave 158972 max 138653 min
Histogram: 2 0 0 0 0 0 0 1 0 1

Total # of neighbors = 591317
Ave neighs/atom = 197.106
Ave special neighs/atom = 10.5
Neighbor list builds = 72
Dangerous builds = 0
