LAMMPS (8 Jul 2015)
# 250 butane system for drude polarizability example (Nose-Hoover)

units real
boundary p p p

atom_style full
bond_style harmonic
angle_style harmonic
dihedral_style opls
special_bonds lj/coul 0.0 0.0 0.5

pair_style hybrid/overlay lj/cut/coul/long 8.0 8.0 thole 2.089 8.0
pair_modify mix geometric tail yes
kspace_style pppm 1.0e-4

read_data data.butane
  orthogonal box = (-19.1 -19.0999 -19.1) to (19.1 19.1 19.1)
  1 by 1 by 1 MPI processor grid
  reading atoms ...
  4500 atoms
  scanning bonds ...
  5 = max bonds/atom
  scanning angles ...
  6 = max angles/atom
  scanning dihedrals ...
  9 = max dihedrals/atom
  reading bonds ...
  4250 bonds
  reading angles ...
  6000 angles
  reading dihedrals ...
  6750 dihedrals
  5 = max # of 1-2 neighbors
  8 = max # of 1-3 neighbors
  12 = max # of 1-4 neighbors
  17 = max # of special neighbors

group gBUTANE molecule 1:250
4500 atoms in group gBUTANE
group gCORES type 1 2 3
3500 atoms in group gCORES
group gDRUDES type 4 5
1000 atoms in group gDRUDES

pair_coeff    1    1 lj/cut/coul/long 0.065997 3.500000 # C3H C3H
pair_coeff    1    2 lj/cut/coul/long 0.065997 3.500000 # C3H C2H
pair_coeff    1    3 lj/cut/coul/long 0.044496 2.958040 # C3H H
pair_coeff    2    2 lj/cut/coul/long 0.065997 3.500000 # C2H C2H
pair_coeff    2    3 lj/cut/coul/long 0.044496 2.958040 # C2H H
pair_coeff    3    3 lj/cut/coul/long 0.029999 2.500000 # H H
pair_coeff    *  4*5 lj/cut/coul/long 0.000000 0.000000 # No lj for drudes
pair_coeff    1    * thole 1.368000
pair_coeff    2    * thole 1.368000
pair_coeff    4    * thole 1.368000
pair_coeff    5    * thole 1.368000

neighbor 2.0 bin

variable vTEMP   equal 260.0
variable vTEMP_D equal 1.0
variable vPRESS  equal 1.0

velocity gCORES  create ${vTEMP} 12345
velocity gCORES  create 260 12345
velocity gDRUDES create ${vTEMP_D} 12345
velocity gDRUDES create 1 12345

fix fDRUDE all drude C C N D D

fix fSHAKE gCORES shake 0.0001 20 0 b 2 4
  0 = # of size 2 clusters
  500 = # of size 3 clusters
  500 = # of size 4 clusters
  0 = # of frozen angles

comm_modify vel yes
compute cTEMP_CORE gCORES temp/com
compute cTEMP all temp/drude

fix fDIRECT all drude/transform/direct
fix fNPT gCORES npt temp ${vTEMP} ${vTEMP} 100.0 iso ${vPRESS} ${vPRESS} 500.0
fix fNPT gCORES npt temp 260 ${vTEMP} 100.0 iso ${vPRESS} ${vPRESS} 500.0
fix fNPT gCORES npt temp 260 260 100.0 iso ${vPRESS} ${vPRESS} 500.0
fix fNPT gCORES npt temp 260 260 100.0 iso 1 ${vPRESS} 500.0
fix fNPT gCORES npt temp 260 260 100.0 iso 1 1 500.0
fix_modify fNPT temp cTEMP_CORE press thermo_press
WARNING: Temperature for fix modify is not for group all (../fix_nh.cpp:1349)
fix fNVT gDRUDES nvt temp ${vTEMP_D} ${vTEMP_D} 100.0
fix fNVT gDRUDES nvt temp 1 ${vTEMP_D} 100.0
fix fNVT gDRUDES nvt temp 1 1 100.0
fix fINVERSE all drude/transform/inverse

fix fMOMENTUM all momentum 100 linear 1 1 1

thermo_style custom step cpu etotal ke temp pe ebond eangle edihed eimp evdwl ecoul elong press vol c_cTEMP[1] c_cTEMP[2]
thermo 50

timestep 0.5
run 2000
PPPM initialization ...
  G vector (1/distance) = 0.367867
  grid = 36 36 36
  stencil order = 5
  estimated absolute RMS force accuracy = 0.031354
  estimated relative force accuracy = 9.44215e-05
  using double precision FFTs
  3d grid and FFT values/proc = 79507 46656
Rebuild special list taking Drude particles into account
Old max number of 1-2 to 1-4 neighbors: 17
New max number of 1-2 to 1-4 neighbors: 17 (+0)
Neighbor list info ...
  2 neighbor list requests
  update every 1 steps, delay 10 steps, check yes
  master list distance cutoff = 10
Memory usage per processor = 20.1567 Mbytes
Step CPU TotEng KinEng Temp PotEng E_bond E_angle E_dihed E_impro E_vdwl E_coul E_long Press Volume cTEMP[1] cTEMP[2] 
       0            0    6535.5187      2714.74    248.45112    3820.7787    3724.3278    140.75328    1.4735401            0   -518.77975    595169.42   -594696.41    -353319.1    55742.797    334.61375    18.435655 
      50    4.7193041    3170.4168    1929.6689    176.60196    1240.7479    855.64091    668.01143    115.06625            0   -799.35441    595243.09   -594841.71    1724.8701    56248.701    186.91808    148.91569 
     100      9.44418    2482.4931    1828.3276    167.32728    654.16546    363.58878    696.97167    162.17285            0   -1011.0545    595307.07   -594864.58    141.55264    57219.514    205.69547    64.844783 
     150    14.151002    2306.1154    1771.5619    162.13212     534.5535    237.82308    696.85973    156.42511            0   -980.61107    595290.61   -594866.55    3518.9498    57980.609    212.84036    26.747993 
     200    18.830446    2253.5344    1704.8038    156.02246    548.73058    240.06284    716.68755    155.67882            0   -993.69431    595297.43   -594867.44     903.2839    58727.085    208.67915    15.448616 
     250    23.469383      2265.25    1705.1842    156.05728    560.06584    185.79253    829.59879    153.94622            0    -1036.966    595295.24   -594867.55   -179.28434     59346.61    210.83688     9.822269 
     300    28.053447    2307.2456    1808.8576     165.5454    498.38797    148.05724    785.92202    138.20032            0   -1004.0081    595298.22      -594868    1769.0497    59732.531    225.13741     6.467823 
     350    32.620727    2349.1849    1731.3377    158.45083    617.84722    193.65202    812.63434    152.90312            0   -964.31707    595290.12   -594867.14    1904.3097    60115.832    216.06999    4.6412855 
     400    37.179611     2402.738    1789.3692    163.76183     613.3688    184.29375    828.39253    174.51855            0   -1003.8089    595297.01   -594867.04     -595.055    60532.605    223.95957    3.0707592 
     450     41.71967    2464.3639      1749.57    160.11943    714.79389    138.72166    955.25701    167.06104            0   -971.74184    595291.63   -594866.13   -324.57503    60736.467    219.19418    2.4266614 
     500    46.248268    2523.8627    1848.5443     169.1775    675.31841    191.67152    823.06969    160.85286            0    -923.3635    595289.47   -594866.39    2887.3468    60833.606    231.82437    1.9499796 
     550    50.762697    2583.8886     1725.633    157.92874    858.25561    183.84129    1012.9402     173.7913            0   -936.49958    595290.43   -594866.25    864.81972    61065.349    216.52528    1.5133708 
     600    55.137734    2646.1123    1703.6387    155.91584    942.47358      180.921    1095.6796    175.69453            0   -936.17886    595292.07   -594865.71    591.47122    61188.226    213.86747    1.2222289 
     650      59.3566    2708.2721    1852.9068    169.57675    855.36521     173.8282    972.23157    170.13626            0   -882.53479    595287.54   -594865.84    2704.2011    61165.694    232.71646    1.0346115 
     700    63.515154    2766.0673    1795.0147     164.2785    971.05263    188.36508    1045.7478    184.91304            0   -871.87439    595289.62   -594865.72   -30.066367    61285.288    225.47777   0.91615922 
     750    67.898334    2826.7098    1932.7529    176.88421    893.95686    178.95472    986.49978    189.66908            0   -892.61553    595297.61   -594866.17   -198.89034    61374.036    242.84735   0.80560623 
     800    72.308648    2885.1321    1817.8965    166.37263    1067.2356    200.73934    1068.2393    198.84888            0   -830.21382       595296   -594866.38    5.1587033    61322.107    228.42862    0.7236288 
     850    76.715298    2941.1699    2014.1587    184.33441    927.01121    196.43534     949.8759    173.96105            0   -821.78376    595294.74   -594866.22   -1489.5608    61348.932    253.13258    0.6882858 
     900    81.054843    2994.8933    1973.2319    180.58882    1021.6613    207.08251    1044.7485    183.74582            0   -849.17238    595301.15   -594865.89   -1862.3973    61448.629    248.00063    0.6434097 
     950     85.42125    3043.9131    1941.7306    177.70584    1102.1825    240.08145    1061.0085    193.79689            0   -826.50136    595299.94   -594866.15   -1653.7121    61430.165     244.0413   0.63356553 
    1000     89.79735    3090.5423    2035.9001    186.32416    1054.6422     182.2363     1031.647    186.69624            0   -774.78506    595294.68   -594865.83    449.43928    61358.337    255.89401   0.61825388 
    1050    94.123519    3131.4693    2083.1422    190.64773    1048.3271    220.93184    1019.5503    189.05061            0   -812.87432    595297.06   -594865.39   -831.50793    61436.195    261.82961   0.63872263 
    1100    98.438306    3167.7602    2059.5959    188.49279    1108.1643    232.22076     1050.854    206.61185            0   -813.07886    595296.84   -594865.28   -1540.9633    61453.995    258.86969   0.63256753 
    1150    102.75988    3200.6021    2119.2364    193.95105    1081.3656    192.25321    1007.9569     206.0409            0   -752.07324    595292.23   -594865.04     788.5418    61363.921    266.35065   0.69150624 
    1200    107.07338    3229.6943    2001.0806    183.13751    1228.6137    229.90173    1117.9114    213.62226            0   -761.57375    595293.66   -594864.91   -694.07931    61430.142    251.47389   0.72402827 
    1250    111.15886     3255.184    2140.7264     195.9178    1114.4576    173.78631    1068.9046    230.71554            0   -791.77339    595297.67   -594864.84   -1200.1306    61501.438     269.0275   0.76268798 
    1300    115.21618    3277.6398    2121.1181    194.12326    1156.5217    213.43556     1039.362    237.38683            0   -759.73026    595289.98   -594863.91   -414.18114    61453.777    266.52247   0.86456944 
    1350    119.26614    3294.8714    2092.5109    191.50515    1202.3605    203.94508    1107.6264    224.16617            0   -758.91902    595289.31   -594863.77    95.383298    61463.677    262.90682   0.90917309 
    1400    123.30778     3304.579     2228.881    203.98565     1075.698    183.46594    1041.7886    226.55211            0   -804.44897    595292.23   -594863.89    917.96945    61516.215    280.00877    1.0533367 
    1450    127.35194    3304.1872    2070.9424    189.53122    1233.2448    193.56242    1157.3608     228.7173            0   -770.29918    595287.21   -594863.31    556.17545    61468.353     260.1116     1.127334 
    1500    131.37258    3299.9032    2105.7955    192.72095    1194.1077    202.62711    1089.2281    226.46324            0   -744.12755    595282.87   -594862.96    2128.4152    61398.216    264.46557    1.2092216 
    1550    135.37636    3288.4128    2076.7538    190.06307     1211.659    178.42927    1154.2806    230.78245            0   -777.53661    595289.03   -594863.33    1437.3241    61454.639    260.76786     1.326897 
    1600    139.37872    3275.1875    1980.1581     181.2227    1295.0294     228.3248    1182.6195    235.68187            0   -777.07851    595288.57   -594863.09   -156.89194    61460.181    248.61644    1.3248446 
    1650    143.38162    3259.8847    2018.7517    184.75476     1241.133    226.48044    1104.8755    220.59156            0   -734.38354    595286.57      -594863    1552.4846     61372.69    253.44771    1.3887898 
    1700    147.39406    3243.6268    2101.2737    192.30711    1142.3531    159.68068    1083.4465    228.70484            0    -757.3678    595291.17   -594863.28   -189.06431    61425.574    263.81749    1.4204582 
    1750    151.39784    3230.4973    1988.4505    181.98161    1242.0468     236.8267    1092.5773     241.9342            0   -757.83297    595291.61   -594863.06   -926.03842    61460.594    249.64582    1.3617416 
    1800    155.40175    3222.9106    2060.6333    188.58773    1162.2773     204.5018    1030.7072    227.95705            0   -726.34966    595288.76    -594863.3    713.13567    61398.909    258.74767    1.3059718 
    1850    159.41403    3220.3568    2055.6625    188.13281    1164.6943    187.84755    1065.8019    225.28945            0   -740.48838    595289.56   -594863.32    738.60938    61427.695    258.16489    1.1924682 
    1900    163.41252    3221.9326    2063.5757    188.85702    1158.3569    231.22648     1036.356    222.70506            0   -761.08609    595292.14   -594862.98   -263.60559    61508.639    259.17172    1.1622893 
    1950    167.41265    3228.0616    2053.0898    187.89735    1174.9718    199.92808    1049.1253    236.60785            0   -737.75162    595290.27   -594863.21   -388.04526    61492.801    257.89576    1.0470377 
    2000    171.40751    3238.3152    2047.6593    187.40037    1190.6558    188.43396    1060.0995    232.27873            0   -718.24117    595291.36   -594863.28    743.99527    61479.137    257.22911    1.0029785 
Loop time of 171.408 on 1 procs for 2000 steps with 4500 atoms

Pair  time (%) = 58.0614 (33.8733)
Bond  time (%) = 17.3418 (10.1173)
Kspce time (%) = 23.116 (13.486)
Neigh time (%) = 1.59979 (0.933323)
Comm  time (%) = 0.368538 (0.215007)
Outpt time (%) = 0.00632811 (0.00369185)
Other time (%) = 70.9138 (41.3714)

Nlocal:    4500 ave 4500 max 4500 min
Histogram: 1 0 0 0 0 0 0 0 0 0
Nghost:    9029 ave 9029 max 9029 min
Histogram: 1 0 0 0 0 0 0 0 0 0
Neighs:    724822 ave 724822 max 724822 min
Histogram: 1 0 0 0 0 0 0 0 0 0

Total # of neighbors = 724822
Ave neighs/atom = 161.072
Ave special neighs/atom = 13.3333
Neighbor list builds = 37
Dangerous builds = 0
gerous builds = 0
