LAMMPS (8 Jul 2015)
# 250 butane system for drude polarizability example (Langevin)

units real
boundary p p p

atom_style full
bond_style harmonic
angle_style harmonic
dihedral_style opls
special_bonds lj/coul 0.0 0.0 0.5

pair_style hybrid/overlay lj/cut/coul/long 8.0 8.0 thole 2.089 8.0
pair_modify mix geometric tail yes
kspace_style pppm 1.0e-4

read_data data.butane
  orthogonal box = (-19.1 -19.0999 -19.1) to (19.1 19.1 19.1)
  1 by 1 by 1 MPI processor grid
  reading atoms ...
  4500 atoms
  scanning bonds ...
  5 = max bonds/atom
  scanning angles ...
  6 = max angles/atom
  scanning dihedrals ...
  9 = max dihedrals/atom
  reading bonds ...
  4250 bonds
  reading angles ...
  6000 angles
  reading dihedrals ...
  6750 dihedrals
  5 = max # of 1-2 neighbors
  8 = max # of 1-3 neighbors
  12 = max # of 1-4 neighbors
  17 = max # of special neighbors

comm_modify vel yes

group gBUTANE molecule 1:250
4500 atoms in group gBUTANE
group gCORES type 1 2 3
3500 atoms in group gCORES
group gDRUDES type 4 5
1000 atoms in group gDRUDES

pair_coeff    1    1 lj/cut/coul/long 0.065997 3.500000 # C3H C3H
pair_coeff    1    2 lj/cut/coul/long 0.065997 3.500000 # C3H C2H
pair_coeff    1    3 lj/cut/coul/long 0.044496 2.958040 # C3H H
pair_coeff    2    2 lj/cut/coul/long 0.065997 3.500000 # C2H C2H
pair_coeff    2    3 lj/cut/coul/long 0.044496 2.958040 # C2H H
pair_coeff    3    3 lj/cut/coul/long 0.029999 2.500000 # H H
pair_coeff    *  4*5 lj/cut/coul/long 0.000000 0.000000 # No lj for drudes
pair_coeff    1    * thole 1.368000
pair_coeff    2    * thole 1.368000
pair_coeff    4    * thole 1.368000
pair_coeff    5    * thole 1.368000

neighbor 2.0 bin

variable vTEMP   equal 260.0
variable vTEMP_D equal 1.0
variable vPRESS  equal 1.0

velocity gCORES  create ${vTEMP} 12345
velocity gCORES  create 260 12345
velocity gDRUDES create ${vTEMP_D} 12345
velocity gDRUDES create 1 12345

fix fDRUDE all drude Core Core NoPol Drude Drude

fix fSHAKE gCORES shake 0.0001 20 0 b 2 4
  0 = # of size 2 clusters
  500 = # of size 3 clusters
  500 = # of size 4 clusters
  0 = # of frozen angles

fix fLANG all langevin/drude ${vTEMP} 100.0 200611 ${vTEMP_D} 20.0 260514 zero yes
fix fLANG all langevin/drude 260 100.0 200611 ${vTEMP_D} 20.0 260514 zero yes
fix fLANG all langevin/drude 260 100.0 200611 1 20.0 260514 zero yes
fix fNPH all nph iso ${vPRESS} ${vPRESS} 500.0
fix fNPH all nph iso 1 ${vPRESS} 500.0
fix fNPH all nph iso 1 1 500.0

thermo_style custom step cpu etotal ke temp pe ebond eangle edihed eimp evdwl ecoul elong press vol f_fLANG[1] f_fLANG[2]
thermo 50

timestep 0.5
run 2000
PPPM initialization ...
  G vector (1/distance) = 0.367867
  grid = 36 36 36
  stencil order = 5
  estimated absolute RMS force accuracy = 0.031354
  estimated relative force accuracy = 9.44215e-05
  using double precision FFTs
  3d grid and FFT values/proc = 79507 46656
Rebuild special list taking Drude particles into account
Old max number of 1-2 to 1-4 neighbors: 17
New max number of 1-2 to 1-4 neighbors: 17 (+0)
Neighbor list info ...
  2 neighbor list requests
  update every 1 steps, delay 10 steps, check yes
  master list distance cutoff = 10
Memory usage per processor = 20.1567 Mbytes
Step CPU TotEng KinEng Temp PotEng E_bond E_angle E_dihed E_impro E_vdwl E_coul E_long Press Volume fLANG[1] fLANG[2] 
       0            0    6535.5187      2714.74    248.45112    3820.7787    3724.3278    140.75328    1.4735401            0   -518.77975    595169.42   -594696.41    -353319.1    55742.797    334.73928    18.435655 
      50    4.3929009    3438.9818      2062.17    188.72837    1376.8118    851.61574    807.26933    115.52832            0   -797.76505     595242.7   -594842.54    2130.6701    56257.781    205.95409    153.89528 
     100    8.6051669    2905.5155    1972.7762    180.54711    932.73931    363.23431     922.3663    173.07882            0   -966.51508    595306.45   -594865.88    722.40972    57258.619    232.23733    54.789122 
     150    12.998045      2826.87    1940.5056    177.59373    886.36446     234.3041    982.99066    185.56869            0   -940.48429    595292.04   -594868.06    3782.4671    58079.097    242.42194    14.792598 
     200    17.348274    2816.9353    1858.0527     170.0477    958.88266     229.0045    1070.9992    190.26278            0   -959.69904    595296.98   -594868.67    1563.0513    58860.944    234.67179    5.3424993 
     250    21.668319    2866.7124    1903.9264    174.24603    962.78602    214.55715    1133.8599     186.8765            0   -1000.3418    595296.76   -594868.92   -4.1304985    59540.437    241.71115     2.539061 
     300    25.971427    2943.4904    1980.6469    181.26743    962.84355    212.42299    1120.6452    184.31088            0   -983.16551    595297.55   -594868.92     1479.452    60026.055    251.61374    1.7629689 
     350    30.245849    3018.3619    1941.3052    177.66691    1077.0567    229.84586    1179.2113    195.23026            0   -954.31241    595295.58    -594868.5    238.95936    60500.529    246.44683    1.5392896 
     400    34.463669    2987.6071    1946.1358      178.109    1041.4712    240.85426    1156.1112    190.24211            0   -974.92452    595297.22   -594868.03    173.13515    60935.694    246.09029    1.4811267 
     450     38.70955    3011.8128    1946.0811      178.104    1065.7317    216.15957    1189.1222    189.57515            0   -957.98865    595296.54   -594867.68    165.22835    61241.276    247.00542    1.4945586 
     500    42.950086    3060.1639    1974.9924    180.74993    1085.1715    222.15096    1187.8861    195.54142            0   -948.29695     595295.9   -594868.01     1394.277    61497.946    250.61418    1.4733512 
     550    47.181323    3116.8982    1977.3287    180.96375    1139.5695    223.00382    1219.9963    207.90439            0   -940.44354    595297.17   -594868.06    713.19329    61739.179    250.66611    1.4514116 
     600     51.37533       3153.3    1986.5851    181.81089    1166.7149    223.89291    1252.9156    202.44001            0   -941.21446    595296.39   -594867.71   -628.87012    61949.514    251.72579    1.4864373 
     650    55.555275    3222.3505    2016.2606    184.52678    1206.0898    222.03789    1282.9371    206.03543            0   -934.10972     595296.8   -594867.61      494.349     62108.09    255.92216    1.5015656 
     700     59.55058    3217.2306    2042.5996     186.9373     1174.631    229.20526    1248.9675    194.87638            0   -929.07117    595298.49   -594867.84   -176.43605    62252.139    257.86298    1.4973491 
     750    63.535809    3275.9996    2089.0034    191.18415    1186.9962    226.32598    1245.3448    205.92031            0    -920.5853    595297.41   -594867.42    -201.7139    62361.399    264.53742    1.4535781 
     800    67.517587    3268.0785    2044.5742    187.11801    1223.5043    217.53439     1273.992    215.09551            0   -912.22812    595296.61    -594867.5   -59.457094    62452.303    259.28328     1.470086 
     850    71.448658    3311.9031    2078.1848    190.19403    1233.7183    226.19142    1285.7717     215.2075            0   -922.21985    595295.81   -594867.04   -403.09629    62572.465    263.59223    1.4583435 
     900    75.422605    3295.9575    2035.5703    186.29399    1260.3872    226.84269    1298.4398    228.69943            0   -924.29385    595298.13   -594867.43   -138.85244    62663.376    258.06437    1.5032087 
     950    79.420525    3303.5479    2112.3761     193.3232    1191.1718    227.52324    1248.1188    202.58092            0   -917.15643    595297.44   -594867.33    681.99958    62705.642    267.56782    1.5871541 
    1000    83.417291    3313.2797     2095.276    191.75821    1218.0037    227.69278    1258.8696    202.93192            0   -900.22268    595295.86   -594867.13    236.76902    62741.745    265.06231    1.5340266 
    1050    87.343904    3324.0672    2114.0666    193.47791    1210.0006    219.23933    1258.6182    213.25287            0    -909.8479    595295.36   -594866.62    102.82374    62805.735    267.62557    1.5275832 
    1100    91.309912    3295.8066    2086.2086    190.92837    1209.5979    236.14675    1250.1522    208.78466            0   -914.46307    595295.66   -594866.68    -263.6109    62876.308    264.70272    1.5575849 
    1150    95.273331    3330.8315     2098.508      192.054    1232.3235    214.09833    1286.0012    211.49091            0   -908.52266    595295.82   -594866.56    382.76159    62931.289     266.2987    1.4896618 
    1200    99.214645    3300.2879    2062.1992    188.73105    1238.0886    237.77035    1256.4399    212.57825            0   -897.27295     595295.3   -594866.73    188.49598    62990.297     261.3937    1.4556713 
    1250    103.11375    3332.9733    2078.9282    190.26207    1254.0451    224.94965    1276.6677    218.45082            0   -893.72627    595294.23   -594866.53   -418.59695    63052.599    263.79007    1.4777861 
    1300    107.19831    3325.2048    2100.8659    192.26979    1224.3389     219.6212    1256.4364    222.33141            0   -902.84189    595295.45   -594866.66    20.217896    63133.982    265.65982    1.4933968 
    1350     111.3316     3340.028    2096.7468    191.89282    1243.2811    224.45536    1265.0074    217.11063            0   -892.91469    595296.49   -594866.87    19.620553    63223.195    265.52368    1.4758977 
    1400    115.46555    3317.3121    2056.0573    188.16894    1261.2548    230.58322    1284.4209    209.54259            0   -892.23832    595295.85   -594866.91    763.89887     63306.87    261.13978    1.5099676 
    1450    119.59727    3335.3339    2074.2307    189.83216    1261.1032    237.45422    1276.5982    214.61676            0   -896.24707     595295.2   -594866.52   -33.633955    63387.483    262.65092    1.5943781 
    1500    123.67316    3439.8001    2114.5667    193.52368    1325.2334    266.51688    1309.1047    212.65136            0   -893.44082     595297.3    -594866.9    52.848079    63463.889    268.29003    1.5656929 
    1550    127.79708    3436.1973    2172.6233    198.83698     1263.574    249.54088    1266.5158    212.48932            0   -894.84573    595296.95   -594867.08   -307.75619    63529.151    274.76678    1.5451682 
    1600    131.91956    3424.6453    2095.5725    191.78534    1329.0728     236.1778    1316.6598    232.17058            0   -884.66705    595295.11   -594866.38   -126.79597    63569.281    265.49464    1.5041501 
    1650    136.03987     3423.049    2139.3843    195.79497    1283.6647    232.81359    1292.8956    214.51766            0   -885.85717    595296.02   -594866.72    564.35981    63623.828    271.17128    1.5220663 
    1700    140.11566    3359.4673    2080.1121    190.37042    1279.3552    238.70473    1284.4137    209.64728            0   -882.11262    595295.46   -594866.76   -313.10323    63679.621    263.64375    1.5141091 
    1750    144.34272     3359.099    2089.1181    191.19464     1269.981    231.84085    1262.2407    213.61475            0   -866.91747    595296.35   -594867.15    320.15587    63724.357    264.91099    1.6013919 
    1800    148.25639    3312.6457    2046.6098    187.30431     1266.036    209.53104    1285.2781     211.3158            0   -868.40809    595295.23   -594866.91    747.59254    63787.486    259.26911    1.5433873 
    1850    152.17106    3310.5187    2083.9645    190.72299    1226.5541    228.22827    1248.0472    202.39425            0   -880.19291    595294.88   -594866.81    356.03855    63885.015    264.31998    1.4762585 
    1900     156.0905    3339.2904    2074.2191     189.8311    1265.0713    237.84137    1278.3518    207.71992            0   -887.81727    595295.52   -594866.54    -475.8525    63963.148     263.0741    1.5284002 
    1950    159.97022    3394.9407     2117.091    193.75471    1277.8497    230.77777    1288.8714    201.39588            0   -871.24946    595294.82   -594866.77    25.819438    63991.281    268.30132     1.505582 
    2000    163.88143      3372.77    2081.0839    190.45936    1291.6861    239.99765    1277.6281    214.75325            0   -869.06045    595294.78   -594866.41    42.574874    64037.621    263.54838    1.5079011 
Loop time of 163.881 on 1 procs for 2000 steps with 4500 atoms

Pair  time (%) = 58.9938 (35.9979)
Bond  time (%) = 17.2837 (10.5465)
Kspce time (%) = 21.3214 (13.0103)
Neigh time (%) = 1.33918 (0.817167)
Comm  time (%) = 0.373492 (0.227904)
Outpt time (%) = 0.0036006 (0.00219707)
Other time (%) = 64.5663 (39.3982)

Nlocal:    4500 ave 4500 max 4500 min
Histogram: 1 0 0 0 0 0 0 0 0 0
Nghost:    7967 ave 7967 max 7967 min
Histogram: 1 0 0 0 0 0 0 0 0 0
Neighs:    777697 ave 777697 max 777697 min
Histogram: 1 0 0 0 0 0 0 0 0 0

Total # of neighbors = 777697
Ave neighs/atom = 172.822
Ave special neighs/atom = 13.3333
Neighbor list builds = 31
Dangerous builds = 0
