LAMMPS (8 Jul 2015)
# 250 butane system for drude polarizability example (Langevin)

units real
boundary p p p

atom_style full
bond_style harmonic
angle_style harmonic
dihedral_style opls
special_bonds lj/coul 0.0 0.0 0.5

pair_style hybrid/overlay lj/cut/coul/long 8.0 8.0 thole 2.089 8.0
pair_modify mix geometric tail yes
kspace_style pppm 1.0e-4

read_data data.butane
  orthogonal box = (-19.1 -19.0999 -19.1) to (19.1 19.1 19.1)
  2 by 1 by 2 MPI processor grid
  reading atoms ...
  4500 atoms
  scanning bonds ...
  5 = max bonds/atom
  scanning angles ...
  6 = max angles/atom
  scanning dihedrals ...
  9 = max dihedrals/atom
  reading bonds ...
  4250 bonds
  reading angles ...
  6000 angles
  reading dihedrals ...
  6750 dihedrals
  5 = max # of 1-2 neighbors
  8 = max # of 1-3 neighbors
  12 = max # of 1-4 neighbors
  17 = max # of special neighbors

comm_modify vel yes

group gBUTANE molecule 1:250
4500 atoms in group gBUTANE
group gCORES type 1 2 3
3500 atoms in group gCORES
group gDRUDES type 4 5
1000 atoms in group gDRUDES

pair_coeff    1    1 lj/cut/coul/long 0.065997 3.500000 # C3H C3H
pair_coeff    1    2 lj/cut/coul/long 0.065997 3.500000 # C3H C2H
pair_coeff    1    3 lj/cut/coul/long 0.044496 2.958040 # C3H H
pair_coeff    2    2 lj/cut/coul/long 0.065997 3.500000 # C2H C2H
pair_coeff    2    3 lj/cut/coul/long 0.044496 2.958040 # C2H H
pair_coeff    3    3 lj/cut/coul/long 0.029999 2.500000 # H H
pair_coeff    *  4*5 lj/cut/coul/long 0.000000 0.000000 # No lj for drudes
pair_coeff    1    * thole 1.368000
pair_coeff    2    * thole 1.368000
pair_coeff    4    * thole 1.368000
pair_coeff    5    * thole 1.368000

neighbor 2.0 bin

variable vTEMP   equal 260.0
variable vTEMP_D equal 1.0
variable vPRESS  equal 1.0

velocity gCORES  create ${vTEMP} 12345
velocity gCORES  create 260 12345
velocity gDRUDES create ${vTEMP_D} 12345
velocity gDRUDES create 1 12345

fix fDRUDE all drude Core Core NoPol Drude Drude

fix fSHAKE gCORES shake 0.0001 20 0 b 2 4
  0 = # of size 2 clusters
  500 = # of size 3 clusters
  500 = # of size 4 clusters
  0 = # of frozen angles

fix fLANG all langevin/drude ${vTEMP} 100.0 200611 ${vTEMP_D} 20.0 260514 zero yes
fix fLANG all langevin/drude 260 100.0 200611 ${vTEMP_D} 20.0 260514 zero yes
fix fLANG all langevin/drude 260 100.0 200611 1 20.0 260514 zero yes
fix fNPH all nph iso ${vPRESS} ${vPRESS} 500.0
fix fNPH all nph iso 1 ${vPRESS} 500.0
fix fNPH all nph iso 1 1 500.0

thermo_style custom step cpu etotal ke temp pe ebond eangle edihed eimp evdwl ecoul elong press vol f_fLANG[1] f_fLANG[2]
thermo 50

timestep 0.5
run 2000
PPPM initialization ...
  G vector (1/distance) = 0.367867
  grid = 36 36 36
  stencil order = 5
  estimated absolute RMS force accuracy = 0.031354
  estimated relative force accuracy = 9.44215e-05
  using double precision FFTs
  3d grid and FFT values/proc = 26875 11664
Rebuild special list taking Drude particles into account
Old max number of 1-2 to 1-4 neighbors: 17
New max number of 1-2 to 1-4 neighbors: 17 (+0)
Neighbor list info ...
  2 neighbor list requests
  update every 1 steps, delay 10 steps, check yes
  master list distance cutoff = 10
Memory usage per processor = 14.7792 Mbytes
Step CPU TotEng KinEng Temp PotEng E_bond E_angle E_dihed E_impro E_vdwl E_coul E_long Press Volume fLANG[1] fLANG[2] 
       0            0    6535.5187      2714.74    248.45112    3820.7787    3724.3278    140.75328    1.4735401            0   -518.77975    595169.42   -594696.41    -353319.1    55742.797    334.73928    18.435655 
      50    1.2668459    3410.6784    2034.8169    186.22504    1375.8615    842.71727    811.51376    115.19614            0   -793.46996    595242.73   -594842.83    2109.6157    56273.791     201.9448    153.87131 
     100     2.514138    2827.6321    1905.2273    174.36508    922.40477    368.39259     923.7717    167.25884            0   -976.66357    595305.49   -594865.84    946.83751    57299.567    223.44257     54.64127 
     150     3.751725    2758.2175    1912.4504    175.02614    845.76702    235.11352    972.45433    182.57919            0   -969.90227    595293.97   -594868.45    2921.4172    58103.355    237.97799    15.135471 
     200    4.9799981    2766.0947    1846.0489    168.94912    920.04577    232.11736    1044.4934    186.28712            0   -970.08002     595295.9   -594868.67    1836.9361    58841.531      232.706    5.3675282 
     250    6.1981859    2852.1048    1876.7517    171.75902     975.3531    222.30361    1133.4861    191.21944            0    -1000.096    595296.96   -594868.52   -198.63608    59514.428    237.78741    2.6093039 
     300    7.4125111    2942.1632    1941.8271    177.71467    1000.3361    223.47148    1154.1932    191.57365            0   -998.00799    595297.85   -594868.75    1325.3941    59999.715    246.97854    1.8359591 
     350    8.6276259    2976.0093     1954.029    178.83138    1021.9803    219.38074    1155.3598    184.33105            0   -965.34145    595296.76   -594868.51    1736.6238    60436.647    247.84036    1.5770355 
     400    9.8371761     3043.702    1993.5019    182.44391    1050.2001    228.75452    1171.7329    191.37577            0   -970.65405    595297.45   -594868.46    30.304069    60850.352      252.571    1.4938526 
     450    11.022185    3133.8672    2021.3919    184.99639    1112.4752     215.7951    1208.7211    205.06982            0   -946.66111    595297.83   -594868.28    350.85507    61146.218    256.07652    1.4702007 
     500    12.220326     3149.196    1993.4651    182.44055    1155.7308    223.27866     1217.249    210.68548            0   -924.12354    595296.26   -594867.62    838.90052    61402.856    253.40376    1.4273235 
     550    13.411792    3155.0713    1967.0551    180.02353    1188.0162    237.80367    1262.1138    206.21624            0   -947.72049    595296.87   -594867.27   -207.78946    61678.295    249.81815    1.4978138 
     600     14.60196    3247.0885    2009.9184    183.94634    1237.1701    236.87732    1284.4699    216.82736            0   -930.77472     595297.3   -594867.53    782.41822    61864.914    254.67496    1.4938371 
     650      15.7821    3293.8487     2081.636    190.50989    1212.2127    223.05732    1281.4144     206.2216            0   -927.45499    595296.19   -594867.22    202.12961    62009.188    264.32728    1.5210641 
     700    16.975878    3279.4401    2066.5478    189.12902    1212.8923    216.43227    1286.2002    192.69839            0   -911.23548    595295.97   -594867.17    255.07334    62165.259    261.58701    1.5560041 
     750    18.167595    3229.6138    2043.2464     186.9965    1186.3674    229.05169    1250.0059    208.95375            0    -930.6324    595295.94   -594866.95   -178.73296    62350.423    259.54128    1.5184863 
     800    19.358358    3239.6159     1999.188    182.96431    1240.4279    218.83048     1315.628    201.97435            0   -924.95674    595296.29   -594867.34    536.10614    62494.018    254.14162    1.5337137 
     850    20.532895    3262.8208    2005.3185    183.52536    1257.5023    213.37389    1320.7373    204.71799            0    -909.4033    595294.78    -594866.7    298.54159    62591.038    254.75766    1.5514803 
     900    21.758165    3275.3999    2045.5531    187.20761    1229.8468    221.13769    1290.0836    201.46684            0   -910.85885    595295.01   -594866.99    458.14671    62704.347    258.72229    1.4514102 
     950    22.948512    3284.0894    2050.4554    187.65626     1233.634     221.8186    1279.9456    218.40387            0   -914.86756    595295.35   -594867.01   -231.85125    62839.254    260.05695    1.4558559 
    1000    24.139842    3290.4623    2049.3289    187.55317    1241.1334    209.77512    1282.9538    220.00465            0   -900.74251    595295.87   -594866.73    -76.78836    62949.874    259.04896    1.4997515 
    1050    25.327116    3300.1189    2083.5131    190.68168    1216.6058    224.26043    1255.6137    207.38772            0   -900.02749    595296.32   -594866.95    550.86581    63020.565    263.94202    1.6207499 
    1100    26.490245    3270.1174    2075.3389    189.93358    1194.7784     228.9431    1225.8957    209.89607            0   -898.47929    595294.99   -594866.47    37.840313    63108.102    263.09005    1.5456909 
    1150    27.669037    3253.0807    2045.5953    187.21147    1207.4854    217.20234    1245.6877    218.62819            0   -901.99655    595294.17   -594866.21    374.86521    63182.321    259.04731    1.5877512 
    1200    28.849529    3331.2733    2052.4616    187.83986    1278.8117    233.75309    1304.7353    212.93796            0    -902.4226    595296.01    -594866.2    36.040712    63244.421    259.73599    1.5171779 
    1250    30.016358    3340.7827    2073.1031    189.72896    1267.6796    234.15732    1265.7676     229.7149            0   -890.83611    595294.56   -594865.68    382.86635    63275.125    263.02787    1.4704144 
    1300    31.198108    3325.3474    2049.6588    187.58336    1275.6886     237.8419    1297.5469    210.52304            0    -900.4779    595296.11   -594865.86   -308.90606    63285.846    259.88574    1.4708967 
    1350    32.377687    3352.7845    2103.3442     192.4966    1249.4403    231.95145    1280.9192    197.15298            0   -889.69756     595295.1   -594865.99   -765.40004     63245.46    266.28944    1.4834205 
    1400    33.556572    3322.6158     2081.462    190.49396    1241.1538    220.14666    1279.1987    203.86897            0   -890.59852    595294.66   -594866.12    407.90543    63184.607    263.27453    1.4607857 
    1450    34.724611    3347.5686    2087.3498    191.03281    1260.2189    210.72654    1280.6367    221.66376            0   -883.01712     595296.1   -594865.89    328.64886     63162.85    264.94947    1.5138104 
    1500    35.901609    3329.6355    2044.6086    187.12116    1285.0269    244.99233    1273.5341    222.66129            0   -885.68435    595295.28   -594865.76   -461.44048    63133.417    259.01856    1.4894106 
    1550    37.084699    3326.0975    2099.0355    192.10228     1227.062    229.04108    1244.2836    215.28086            0   -890.53877    595295.14   -594866.15    197.31021    63086.472     265.8897    1.5432359 
    1600    38.268188    3366.7859    2088.3794    191.12704    1278.4065    229.10345     1279.509    228.62672            0   -888.50859    595295.77   -594866.09    190.83412    63039.611    264.24235    1.5161521 
    1650    39.448984    3357.0688    2108.1543    192.93682    1248.9145    223.82537    1258.0684    223.09518            0   -884.59364    595294.75   -594866.23    381.57016     62986.02    267.44657    1.4816509 
    1700    40.621916    3351.8286    2070.2493    189.46778    1281.5794    230.14999    1289.4907    216.17171            0   -883.19351    595295.51   -594866.55   -191.60872    62959.277    262.78048    1.4820442 
    1750    41.952675    3368.9778    2097.1248    191.92741     1271.853    244.90563    1284.9554    206.63129            0   -893.44372    595294.76   -594865.95   -654.85879    62946.474    265.77812     1.495182 
    1800     43.12596    3374.1505    2119.2745    193.95453     1254.876    228.87267    1278.2878    206.06217            0   -887.57448    595295.57   -594866.34    201.25626    62915.208    268.69821    1.4542317 
    1850    44.289458    3373.0801    2096.9073     191.9075    1276.1728    232.24234    1288.8335    207.69432            0   -881.18606     595295.3   -594866.71    449.25329    62899.406    265.86807    1.4715346 
    1900    45.454169    3375.2005    2118.5428    193.88757    1256.6577    239.93816    1267.4599    203.48349            0   -882.62156     595294.8   -594866.41    48.954349    62920.911    269.03999    1.5029426 
    1950    46.730199    3362.5188    2057.7897    188.32749    1304.7291    243.35439    1292.9646    217.07674            0   -877.22812    595294.86    -594866.3    659.22332    62955.536    260.51436    1.5011826 
    2000    48.011727    3364.0996    2103.9458    192.55167    1260.1538    230.24668    1261.4571    219.50055            0   -878.40793    595293.35   -594865.99   -56.287728    63025.759    267.08386    1.4625058 
Loop time of 48.0118 on 4 procs for 2000 steps with 4500 atoms

Pair  time (%) = 15.1416 (31.5372)
Bond  time (%) = 4.41879 (9.20355)
Kspce time (%) = 9.67626 (20.1539)
Neigh time (%) = 0.379221 (0.789849)
Comm  time (%) = 0.88883 (1.85127)
Outpt time (%) = 0.00249696 (0.00520071)
Other time (%) = 17.5046 (36.459)

Nlocal:    1125 ave 1198 max 970 min
Histogram: 1 0 0 0 0 0 0 1 0 2
Nghost:    5299.5 ave 5450 max 5228 min
Histogram: 2 0 1 0 0 0 0 0 0 1
Neighs:    196287 ave 210138 max 179554 min
Histogram: 1 0 0 0 0 1 1 0 0 1

Total # of neighbors = 785148
Ave neighs/atom = 174.477
Ave special neighs/atom = 13.3333
Neighbor list builds = 31
Dangerous builds = 0
