LAMMPS (8 Jul 2015)
# 250 butane system for drude polarizability example (Nose-Hoover)

units real
boundary p p p

atom_style full
bond_style harmonic
angle_style harmonic
dihedral_style opls
special_bonds lj/coul 0.0 0.0 0.5

pair_style hybrid/overlay lj/cut/coul/long 8.0 8.0 thole 2.089 8.0
pair_modify mix geometric tail yes
kspace_style pppm 1.0e-4

read_data data.butane
  orthogonal box = (-19.1 -19.0999 -19.1) to (19.1 19.1 19.1)
  1 by 1 by 1 MPI processor grid
  reading atoms ...
  4500 atoms
  scanning bonds ...
  5 = max bonds/atom
  scanning angles ...
  6 = max angles/atom
  scanning dihedrals ...
  9 = max dihedrals/atom
  reading bonds ...
  4250 bonds
  reading angles ...
  6000 angles
  reading dihedrals ...
  6750 dihedrals
  5 = max # of 1-2 neighbors
  8 = max # of 1-3 neighbors
  12 = max # of 1-4 neighbors
  17 = max # of special neighbors

group gBUTANE molecule 1:250
4500 atoms in group gBUTANE
group gCORES type 1 2 3
3500 atoms in group gCORES
group gDRUDES type 4 5
1000 atoms in group gDRUDES

pair_coeff    1    1 lj/cut/coul/long 0.065997 3.500000 # C3H C3H
pair_coeff    1    2 lj/cut/coul/long 0.065997 3.500000 # C3H C2H
pair_coeff    1    3 lj/cut/coul/long 0.044496 2.958040 # C3H H
pair_coeff    2    2 lj/cut/coul/long 0.065997 3.500000 # C2H C2H
pair_coeff    2    3 lj/cut/coul/long 0.044496 2.958040 # C2H H
pair_coeff    3    3 lj/cut/coul/long 0.029999 2.500000 # H H
pair_coeff    *  4*5 lj/cut/coul/long 0.000000 0.000000 # No lj for drudes
pair_coeff    1    * thole 1.368000
pair_coeff    2    * thole 1.368000
pair_coeff    4    * thole 1.368000
pair_coeff    5    * thole 1.368000

neighbor 2.0 bin

variable vTEMP   equal 260.0
variable vTEMP_D equal 1.0
variable vPRESS  equal 1.0

velocity gCORES  create ${vTEMP} 12345
velocity gCORES  create 260 12345
velocity gDRUDES create ${vTEMP_D} 12345
velocity gDRUDES create 1 12345

fix fDRUDE all drude Core Core NoPol Drude Drude

fix fSHAKE gCORES shake 0.0001 20 0 b 2 4
  0 = # of size 2 clusters
  500 = # of size 3 clusters
  500 = # of size 4 clusters
  0 = # of frozen angles

compute cTEMP_CORE gCORES temp/com

fix fDIRECT all drude/transform/direct
fix fNPT gCORES npt temp ${vTEMP} ${vTEMP} 100.0 iso ${vPRESS} ${vPRESS} 500.0
fix fNPT gCORES npt temp 260 ${vTEMP} 100.0 iso ${vPRESS} ${vPRESS} 500.0
fix fNPT gCORES npt temp 260 260 100.0 iso ${vPRESS} ${vPRESS} 500.0
fix fNPT gCORES npt temp 260 260 100.0 iso 1 ${vPRESS} 500.0
fix fNPT gCORES npt temp 260 260 100.0 iso 1 1 500.0
fix_modify fNPT temp cTEMP_CORE press thermo_press
WARNING: Temperature for fix modify is not for group all (../fix_nh.cpp:1349)
fix fNVT gDRUDES nvt temp ${vTEMP_D} ${vTEMP_D} 100.0
fix fNVT gDRUDES nvt temp 1 ${vTEMP_D} 100.0
fix fNVT gDRUDES nvt temp 1 1 100.0
fix fINVERSE all drude/transform/inverse temp

fix fMOMENTUM all momentum 100 linear 1 1 1

thermo_style custom step cpu etotal ke temp pe ebond eangle edihed eimp evdwl ecoul elong press vol f_fINVERSE[1] f_fINVERSE[2]
thermo 50

timestep 0.5
run 2000
PPPM initialization ...
  G vector (1/distance) = 0.367867
  grid = 36 36 36
  stencil order = 5
  estimated absolute RMS force accuracy = 0.031354
  estimated relative force accuracy = 9.44215e-05
  using double precision FFTs
  3d grid and FFT values/proc = 79507 46656
Rebuild special list taking Drude particles into account
Old max number of 1-2 to 1-4 neighbors: 17
New max number of 1-2 to 1-4 neighbors: 17 (+0)
Neighbor list info ...
  2 neighbor list requests
  update every 1 steps, delay 10 steps, check yes
  master list distance cutoff = 10
Memory usage per processor = 20.0348 Mbytes
Step CPU TotEng KinEng Temp PotEng E_bond E_angle E_dihed E_impro E_vdwl E_coul E_long Press Volume fINVERSE fINVERSE 
       0            0    6535.5187      2714.74    248.45112    3820.7787    3724.3278    140.75328    1.4735401            0   -518.77975    595169.42   -594696.41    -353319.1    55742.797    334.61375    18.435655 
      50     4.492213    3170.4168    1929.6689    176.60196    1240.7479    855.64091    668.01143    115.06625            0   -799.35441    595243.09   -594841.71    1724.8701    56248.701    186.91808    148.91569 
     100     9.014441    2482.4931    1828.3276    167.32728    654.16547    363.58878    696.97167    162.17285            0   -1011.0545    595307.07   -594864.58    141.55268    57219.514    205.69547    64.844783 
     150    13.512102    2306.1153    1771.5618    162.13211    534.55351    237.82308    696.85973    156.42511            0   -980.61107    595290.61   -594866.55    3518.9494    57980.609    212.84036    26.747971 
     200    17.984684     2253.534    1704.8035    156.02244    548.73054    240.06268    716.68755    155.67882            0   -993.69431    595297.43   -594867.44    903.28367    58727.085    208.67915    15.448522 
     250    22.430841    2265.2495    1705.1838    156.05724    560.06564     185.7922    829.59877    153.94622            0    -1036.966    595295.24   -594867.55   -179.28462     59346.61    210.83689    9.8221402 
     300    26.854322    2307.2455    1808.8574    165.54538    498.38812    148.05721      785.922    138.20032            0   -1004.0081    595298.22      -594868    1769.0502    59732.531    225.13741    6.4677572 
     350    31.265368    2349.1821    1731.3361    158.45068    617.84601    193.65102    812.63432    152.90312            0   -964.31706    595290.12   -594867.14    1904.3115    60115.832    216.06999    4.6407374 
     400    35.658033    2402.7363    1789.3685    163.76177    613.36775    184.29195    828.39255    174.51857            0   -1003.8089    595297.01   -594867.04   -595.05517    60532.605    223.95957    3.0705359 
     450    40.031351     2464.363    1749.5694    160.11938     714.7936    138.72204    955.25711    167.06104            0   -971.74183    595291.63   -594866.13   -324.57206    60736.467    219.19419    2.4264434 
     500    44.168982    2523.8618    1848.5441    169.17748    675.31769     191.6705    823.06957    160.85288            0   -923.36347    595289.48   -594866.39    2887.3464    60833.607    231.82436    1.9499505 
     550    48.540152    2583.8885    1725.6329    157.92873    858.25557    183.84134    1012.9403    173.79129            0   -936.49952    595290.43   -594866.25    864.81371    61065.349    216.52527    1.5133466 
     600    52.633313    2646.1125    1703.6385    155.91582    942.47395    180.92011    1095.6795    175.69453            0    -936.1788    595292.07   -594865.71    591.47536    61188.226     213.8675    1.2220861 
     650    56.789394    2708.2714    1852.9068    169.57675    855.36455    173.82908    972.23168    170.13629            0   -882.53474    595287.54   -594865.84    2704.1989    61165.695    232.71647    1.0345883 
     700    61.007423    2766.0678    1795.0149    164.27852    971.05287    188.36442    1045.7477    184.91306            0   -871.87441    595289.62   -594865.72   -30.060978    61285.289    225.47783   0.91610767 
     750    65.075342    2826.7096    1932.7531    176.88423    893.95647    178.95518    986.49974    189.66911            0   -892.61545    595297.61   -594866.17   -198.88344    61374.037    242.84736   0.80564918 
     800    69.136746    2885.1324    1817.8966    166.37263    1067.2358    200.73887    1068.2393    198.84899            0   -830.21374       595296   -594866.38    5.1632746    61322.108    228.42863   0.72362121 
     850    73.191792    2941.1701    2014.1587    184.33441    927.01145    196.43524    949.87599    173.96107            0   -821.78374    595294.74   -594866.22   -1489.5577    61348.933     253.1326   0.68822667 
     900    77.200684    2994.8931    1973.2319    180.58882    1021.6612    207.08258    1044.7486    183.74587            0   -849.17229    595301.15   -594865.89   -1862.3958     61448.63    248.00065   0.64333267 
     950    81.247577    3043.9136    1941.7309    177.70587    1102.1827    240.08075    1061.0084     193.7969            0   -826.50106    595299.94   -594866.15   -1653.7135    61430.168    244.04133   0.63359084 
    1000    85.291357    3090.5426    2035.9001    186.32417    1054.6425    182.23613     1031.647    186.69617            0   -774.78485    595294.68   -594865.83    449.43458    61358.339    255.89401   0.61826449 
    1050    89.477377    3131.4702    2083.1411    190.64763    1048.3291    220.93187    1019.5503    189.05089            0   -812.87341    595297.06   -594865.39   -831.49765    61436.199    261.82951   0.63863718 
    1100    93.712928    3167.7611    2059.5958    188.49278    1108.1653    232.22077    1050.8542    206.61173            0   -813.07822    595296.84   -594865.28   -1540.9611    61453.999    258.86967   0.63256732 
    1150    97.947737    3200.6023     2119.237     193.9511    1081.3654    192.25294     1007.957    206.04096            0   -752.07335    595292.23   -594865.04      788.544    61363.926     266.3507    0.6915634 
    1200    102.17909    3229.6949    2001.0807    183.13752    1228.6143    229.90099    1117.9115    213.62229            0   -761.57361    595293.66   -594864.91   -694.08558    61430.148    251.47388   0.72410207 
    1250    106.40081    3255.1843     2140.727    195.91785    1114.4573    173.78701    1068.9047    230.71522            0   -791.77331    595297.67   -594864.84   -1200.1247    61501.444    269.02754   0.76277351 
    1300    110.61849    3277.6445    2121.1186     194.1233    1156.5259    213.43452    1039.3619    237.38657            0   -759.73044    595289.98   -594863.91    -414.1422    61453.783    266.52256   0.86450964 
    1350    114.83195    3294.8663    2092.5094    191.50501    1202.3569    203.94699    1107.6267    224.16647            0   -758.91883    595289.31   -594863.77    95.337726    61463.683    262.90666   0.90911542 
    1400    119.04285    3304.5795    2228.8808    203.98562    1075.6987    183.46526    1041.7892    226.55191            0   -804.44885    595292.23   -594863.89    917.98187     61516.22    280.00876    1.0532653 
    1450    123.25416    3304.1872    2070.9431    189.53128    1233.2441    193.56294    1157.3615    228.71632            0   -770.29981    595287.21   -594863.31    556.15562    61468.358    260.11169    1.1273131 
    1500    127.46447    3299.9033    2105.7949    192.72089    1194.1084    202.62872    1089.2291    226.46299            0   -744.12829    595282.87   -594862.96    2128.4193     61398.22    264.46553    1.2091427 
    1550    131.67173    3288.4128     2076.752    190.06291    1211.6608    178.43004    1154.2812    230.78376            0   -777.53687    595289.03   -594863.33    1437.3208    61454.641    260.76764    1.3268894 
    1600    135.84286    3275.1865    1980.1599    181.22287    1295.0266    228.32215    1182.6179    235.68213            0   -777.07889    595288.58   -594863.09    -156.8981    61460.181    248.61664    1.3249118 
    1650    139.81959    3259.8842    2018.7462    184.75426     1241.138    226.48927    1104.8803    220.58995            0   -734.38216    595286.55   -594862.99    1552.5696    61372.688    253.44781    1.3866869 
    1700    143.79595    3243.6295    2101.2794    192.30764      1142.35    159.66367     1083.449    228.70163            0    -757.3691    595291.19   -594863.29   -189.06072    61425.574    263.81831    1.4202102 
    1750    147.77013    3230.4968    1988.4443    181.98105    1242.0525    236.83332    1092.5753    241.93789            0   -757.83156    595291.61   -594863.07   -926.27351    61460.598    249.64539    1.3608406 
    1800    151.74745    3222.9074    2060.6311    188.58754    1162.2763    204.50136    1030.7015    227.95759            0   -726.35056    595288.77    -594863.3    713.02505    61398.916    258.74796    1.3044891 
    1850    155.72232     3220.363    2055.6759    188.13404    1164.6871    187.82771    1065.7994    225.28613            0   -740.48681    595289.58   -594863.32    738.73479    61427.705    258.16535    1.1957259 
    1900    159.69485    3221.9267    2063.5751    188.85697    1158.3516    231.23574    1036.3493    222.70377            0   -761.07777    595292.13   -594862.99   -263.72077    61508.661    259.17115    1.1636117 
    1950    163.66944    3228.0617    2053.0957     187.8979     1174.966     199.9058    1049.1229    236.60526            0   -737.75446    595290.29   -594863.21   -388.04276    61492.841    257.89657    1.0468656 
    2000    167.64376     3238.317    2047.6611    187.40053    1190.6558    188.46073    1060.0942    232.27769            0   -718.24055    595291.33   -594863.27    744.03029    61479.186    257.22945    1.0026702 
Loop time of 167.644 on 1 procs for 2000 steps with 4500 atoms

Pair  time (%) = 57.7268 (34.4342)
Bond  time (%) = 17.3062 (10.3232)
Kspce time (%) = 21.2461 (12.6733)
Neigh time (%) = 1.58012 (0.942545)
Comm  time (%) = 0.159555 (0.095175)
Outpt time (%) = 0.0043602 (0.00260087)
Other time (%) = 69.6206 (41.5289)

Nlocal:    4500 ave 4500 max 4500 min
Histogram: 1 0 0 0 0 0 0 0 0 0
Nghost:    9029 ave 9029 max 9029 min
Histogram: 1 0 0 0 0 0 0 0 0 0
Neighs:    724820 ave 724820 max 724820 min
Histogram: 1 0 0 0 0 0 0 0 0 0

Total # of neighbors = 724820
Ave neighs/atom = 161.071
Ave special neighs/atom = 13.3333
Neighbor list builds = 37
Dangerous builds = 0
