LAMMPS (15 Jul 2015)
WARNING: OMP_NUM_THREADS environment is not set. (../comm.cpp:89)
  using 1 OpenMP thread(s) per MPI task
# 250 butane system for drude polarizability example (Langevin)

units real
boundary p p p

atom_style full
bond_style harmonic
angle_style harmonic
dihedral_style opls
special_bonds lj/coul 0.0 0.0 0.5

pair_style hybrid/overlay lj/cut/coul/long 8.0 8.0 thole 2.089 8.0
pair_modify mix geometric tail yes
kspace_style pppm 1.0e-4

read_data data.drude
  orthogonal box = (-19.1 -19.0999 -19.1) to (19.1 19.1 19.1)
  2 by 1 by 2 MPI processor grid
  reading atoms ...
  4500 atoms
  scanning bonds ...
  5 = max bonds/atom
  scanning angles ...
  6 = max angles/atom
  scanning dihedrals ...
  9 = max dihedrals/atom
  reading bonds ...
  4250 bonds
  reading angles ...
  6000 angles
  reading dihedrals ...
  6750 dihedrals
  5 = max # of 1-2 neighbors
  8 = max # of 1-3 neighbors
  12 = max # of 1-4 neighbors
  17 = max # of special neighbors

comm_modify vel yes

group gBUTANE molecule 1:250
4500 atoms in group gBUTANE
group gCORES type 1 2 3
3500 atoms in group gCORES
group gDRUDES type 4 5
1000 atoms in group gDRUDES

pair_coeff    1    1 lj/cut/coul/long 0.065997 3.500000 # C3H C3H
pair_coeff    1    2 lj/cut/coul/long 0.065997 3.500000 # C3H C2H
pair_coeff    1    3 lj/cut/coul/long 0.044496 2.958040 # C3H H
pair_coeff    2    2 lj/cut/coul/long 0.065997 3.500000 # C2H C2H
pair_coeff    2    3 lj/cut/coul/long 0.044496 2.958040 # C2H H
pair_coeff    3    3 lj/cut/coul/long 0.029999 2.500000 # H H
pair_coeff    *  4*5 lj/cut/coul/long 0.000000 0.000000 # No lj for drudes
pair_coeff    1    * thole 1.368000
pair_coeff    2    * thole 1.368000
pair_coeff    4    * thole 1.368000
pair_coeff    5    * thole 1.368000

neighbor 2.0 bin

variable vTEMP   equal 260.0
variable vTEMP_D equal 1.0
variable vPRESS  equal 1.0

velocity gCORES  create ${vTEMP} 12345
velocity gCORES  create 260 12345
velocity gDRUDES create ${vTEMP_D} 12345
velocity gDRUDES create 1 12345

fix fDRUDE all drude 1 1 0 2 2

fix fSHAKE gCORES shake 0.0001 20 0 b 2 4
  0 = # of size 2 clusters
  500 = # of size 3 clusters
  500 = # of size 4 clusters
  0 = # of frozen angles

compute cTEMP_DRUDE gDRUDES temp
compute cTEMP_DRUDE_DRUDE gDRUDES temp/drude
compute cTEMP_CORE gCORES temp/com

fix fLANG all langevin/drude ${vTEMP} 100.0 200611 ${vTEMP_D} 20.0 260514 zero yes
fix fLANG all langevin/drude 260 100.0 200611 ${vTEMP_D} 20.0 260514 zero yes
fix fLANG all langevin/drude 260 100.0 200611 1 20.0 260514 zero yes
fix fNPH all nph iso ${vPRESS} ${vPRESS} 500.0
fix fNPH all nph iso 1 ${vPRESS} 500.0
fix fNPH all nph iso 1 1 500.0

thermo_style custom step cpu etotal ke temp pe ebond eangle edihed eimp evdwl ecoul elong press vol c_cTEMP_DRUDE c_cTEMP_DRUDE_DRUDE c_cTEMP_CORE f_fLANG[1] f_fLANG[2] f_fLANG[3] f_fLANG[4] f_fLANG[5] f_fLANG[6]
thermo 50

timestep 0.5
run 2000
PPPM initialization ...
  G vector (1/distance) = 0.367867
  grid = 36 36 36
  stencil order = 5
  estimated absolute RMS force accuracy = 0.031354
  estimated relative force accuracy = 9.44215e-05
  using double precision FFTs
  3d grid and FFT values/proc = 26875 11664
Rebuild special list taking Drude particles into account
Old max number of 1-2 to 1-4 neighbors: 17
New max number of 1-2 to 1-4 neighbors: 17 (+0)
Neighbor list info ...
  2 neighbor list requests
  update every 1 steps, delay 10 steps, check yes
  master list distance cutoff = 10
Memory usage per processor = 14.7792 Mbytes
Step CPU TotEng KinEng Temp PotEng E_bond E_angle E_dihed E_impro E_vdwl E_coul E_long Press Volume cTEMP_DR cTEMP_DR cTEMP_CO fLANG[1] fLANG[2] fLANG[3] fLANG[4] fLANG[5] fLANG[6] 
       0            0    6535.5187      2714.74    248.45112    3820.7787    3724.3278    140.75328    1.4735401            0   -518.77975    595169.42   -594696.41    -353319.1    55742.797            1    19.770966    341.28048    334.73928    18.435655         7997         3000    2659.7868    54.953184 
      50    1.3614728    3410.6784    2034.8169    186.22504    1375.8615    842.71727    811.51376    115.19614            0   -793.46996    595242.73   -594842.83    2109.6157    56273.791    156.83593    163.68266    197.30701     201.9448    153.87131         7997         3000    1604.6223    458.66115 
     100     2.645705    2827.6321    1905.2273    174.36508    922.40477    368.39259     923.7717    167.25884            0   -976.66357    595305.49   -594865.84    946.83751    57299.567    63.456979    53.595571    215.99392    223.44257     54.64127         7997         3000    1775.4403    162.87525 
     150    3.8528349    2758.2175    1912.4504    175.02614    845.76702    235.11352    972.45433    182.57919            0   -969.90227    595293.97   -594868.45    2921.4172    58103.355    29.997485    15.525442    229.44338    237.97799    15.135471         7997         3000    1890.9364    45.115963 
     200    5.0572178    2766.0947    1846.0489    168.94912    920.04577    232.11736    1044.4934    186.28712            0   -970.08002     595295.9   -594868.67    1836.9361    58841.531    21.498855    5.4172645    224.27158      232.706    5.3675282         7997         3000     1849.046    15.999582 
     250     6.243928    2852.1048    1876.7517    171.75902     975.3531    222.30361    1133.4861    191.21944            0    -1000.096    595296.96   -594868.52   -198.63608    59514.428    18.483081     2.647656    229.26581    237.78741    2.6093039         7997         3000    1889.4221    7.7778392 
     300     7.421356    2942.1632    1941.8271    177.71467    1000.3361    223.47148    1154.1932    191.57365            0   -998.00799    595297.85   -594868.75    1325.3941    59999.715    18.434735    1.8715143    237.47396    246.97854    1.8359591         7997         3000    1962.4535    5.4726455 
     350    8.6002388    2976.0093     1954.029    178.83138    1021.9803    219.38074    1155.3598    184.33105            0   -965.34145    595296.76   -594868.51    1736.6238    60436.647    18.384157    1.6237865    239.02854    247.84036    1.5770355         7997         3000    1969.3013    4.7008432 
     400    9.7679739     3043.702    1993.5019    182.44391    1050.2001    228.75452    1171.7329    191.37577            0   -970.65405    595297.45   -594868.46    30.304069    60850.352     18.69793    1.5053278    243.87866      252.571    1.4938526         7997         3000    2006.8903    4.4528908 
     450    10.920081    3133.8672    2021.3919    184.99639    1112.4752     215.7951    1208.7211    205.06982            0   -946.66111    595297.83   -594868.28    350.85507    61146.218    18.879403    1.4849081    247.32063    256.07652    1.4702007         7997         3000    2034.7446    4.3823892 
     500    12.083165     3149.196    1993.4651    182.44055    1155.7308    223.27866     1217.249    210.68548            0   -924.12354    595296.26   -594867.62    838.90052    61402.856    17.574128    1.4506799    244.29506    253.40376    1.4273235         7997         3000    2013.5073    4.2545803 
     550    13.246467    3155.0713    1967.0551    180.02353    1188.0162    237.80367    1262.1138    206.21624            0   -947.72049    595296.87   -594867.27   -207.78946    61678.295    18.693763    1.5341083    240.55186    249.81815    1.4978138         7997         3000    1985.0165    4.4646985 
     600    14.418747    3247.0885    2009.9184    183.94634    1237.1701    236.87732    1284.4699    216.82736            0   -930.77472     595297.3   -594867.53    782.41822    61864.914     18.24225    1.5209555    246.11543    254.67496    1.4938371         7997         3000     2023.608    4.4528448 
     650    15.565413    3293.8487     2081.636    190.50989    1212.2127    223.05732    1281.4144     206.2216            0   -927.45499    595296.19   -594867.22    202.12961    62009.188    19.351307    1.5804701    254.72566    264.32728    1.5210641         7997         3000    2100.3039    4.5340032 
     700    16.728749    3279.4401    2066.5478    189.12902    1212.8923    216.43227    1286.2002    192.69839            0   -911.23548    595295.97   -594867.17    255.07334    62165.259    18.934449    1.5840035    252.98286    261.58701    1.5560041         7997         3000    2078.5301    4.6381525 
     750    17.890969    3229.6138    2043.2464     186.9965    1186.3674    229.05169    1250.0059    208.95375            0    -930.6324    595295.94   -594866.95   -178.73296    62350.423    18.315967    1.5519234    250.28207    259.54128    1.5184863         7997         3000     2062.275    4.5263191 
     800    19.055043    3239.6159     1999.188    182.96431    1240.4279    218.83048     1315.628    201.97435            0   -924.95674    595296.29   -594867.34    536.10614    62494.018    18.762627    1.5595847    244.57006    254.14162    1.5337137         7997         3000    2019.3702    4.5717091 
     850    20.207039    3262.8208    2005.3185    183.52536    1257.5023    213.37389    1320.7373    204.71799            0    -909.4033    595294.78    -594866.7    298.54159    62591.038    18.096233    1.5917493    245.59119    254.75766    1.5514803         7997         3000    2024.2651    4.6246681 
     900    21.373926    3275.3999    2045.5531    187.20761    1229.8468    221.13769    1290.0836    201.46684            0   -910.85885    595295.01   -594866.99    458.14671    62704.347    18.332463    1.4956152    250.56641    258.72229    1.4514102         7997         3000    2055.7674    4.3263782 
     950    22.538884    3284.0894    2050.4554    187.65626     1233.634     221.8186    1279.9456    218.40387            0   -914.86756    595295.35   -594867.01   -231.85125    62839.254    18.506792    1.5058433    251.11796    260.05695    1.4558559         7997         3000    2066.3725    4.3396299 
    1000    23.698109    3290.4623    2049.3289    187.55317    1241.1334    209.77512    1282.9538    220.00465            0   -900.74251    595295.87   -594866.73    -76.78836    62949.874    18.190852    1.5496778    251.09456    259.04896    1.4997515         7997         3000    2058.3631    4.4704744 
    1050    24.982652    3300.1189    2083.5131    190.68168    1216.6058    224.26043    1255.6137    207.38772            0   -900.02749    595296.32   -594866.95    550.86581    63020.565    18.787871    1.6575955    255.17287    263.94202    1.6207499         7997         3000    2097.2426    4.8311475 
    1100    26.253347    3270.1174    2075.3389    189.93358    1194.7784     228.9431    1225.8957    209.89607            0   -898.47929    595294.99   -594866.47    37.840313    63108.102    18.469957    1.5871943    254.26334    263.09005    1.5456909         7997         3000     2090.473     4.607411 
    1150    27.401867    3253.0807    2045.5953    187.21147    1207.4854    217.20234    1245.6877    218.62819            0   -901.99655    595294.17   -594866.21    374.86521    63182.321    17.955999    1.5915046    250.71248    259.04731    1.5877512         7997         3000      2058.35    4.7327849 
    1200    28.556007    3331.2733    2052.4616    187.83986    1278.8117    233.75309    1304.7353    212.93796            0    -902.4226    595296.01    -594866.2    36.040712    63244.421    18.686462    1.5442015    251.30313    259.73599    1.5171779         7997         3000    2063.8222     4.522419 
    1250    29.723032    3340.7827    2073.1031    189.72896    1267.6796    234.15732    1265.7676     229.7149            0   -890.83611    595294.56   -594865.68    382.86635    63275.125    17.932246    1.4991051    254.18348    263.02787    1.4704144         7997         3000     2089.979     4.383026 
    1300    31.011361    3325.3474    2049.6588    187.58336    1275.6886     237.8419    1297.5469    210.52304            0    -900.4779    595296.11   -594865.86   -308.90606    63285.846    18.563092    1.4984498    250.99664    259.88574    1.4708967         7997         3000     2065.012    4.3844638 
    1350    32.222768    3352.7845    2103.3442     192.4966    1249.4403    231.95145    1280.9192    197.15298            0   -889.69756     595295.1   -594865.99   -765.40004     63245.46    18.806822     1.500217    257.66163    266.28944    1.4834205         7997         3000    2115.8949    4.4217948 
    1400    33.372163    3322.6158     2081.462    190.49396    1241.1538    220.14666    1279.1987    203.86897            0   -890.59852    595294.66   -594866.12    407.90543    63184.607    19.414859    1.4998646    254.67995    263.27453    1.4607857         7997         3000    2091.9389    4.3543246 
    1450    34.506765    3347.5686    2087.3498    191.03281    1260.2189    210.72654    1280.6367    221.66376            0   -883.01712     595296.1   -594865.89    328.64886     63162.85    19.267124    1.5523464     255.4763    264.94947    1.5138104         7997         3000    2105.2477    4.5123813 
    1500    35.645613    3329.6355    2044.6086    187.12116    1285.0269    244.99233    1273.5341    222.66129            0   -885.68435    595295.28   -594865.76   -461.44048    63133.417    18.870719    1.5145181    250.24553    259.01856    1.4894106         7997         3000    2058.1216      4.43965 
    1550    36.793645    3326.0975    2099.0355    192.10228     1227.062    229.04108    1244.2836    215.28086            0   -890.53877    595295.14   -594866.15    197.31021    63086.472    19.228195    1.5716782    256.96157     265.8897    1.5432359         7997         3000    2112.7186    4.6000931 
    1600    37.938447    3366.7859    2088.3794    191.12704    1278.4065    229.10345     1279.509    228.62672            0   -888.50859    595295.77   -594866.09    190.83412    63039.611    18.764713    1.5410893    255.79415    264.24235    1.5161521         7997         3000     2099.629    4.5193616 
    1650    39.089219    3357.0688    2108.1543    192.93682    1248.9145    223.82537    1258.0684    223.09518            0   -884.59364    595294.75   -594866.23    381.57016     62986.02    19.524923    1.4916822    257.99792    267.44657    1.4816509         7997         3000    2125.0892    4.4165199 
    1700    40.236312    3351.8286    2070.2493    189.46778    1281.5794    230.14999    1289.4907    216.17171            0   -883.19351    595295.51   -594866.55   -191.60872    62959.277    19.140517    1.5016106    253.37161    262.78048    1.4820442         7997         3000    2088.0132    4.4176921 
    1750    41.383812    3368.9778    2097.1248    191.92741     1271.853    244.90563    1284.9554    206.63129            0   -893.44372    595294.76   -594865.95   -654.85879    62946.474    18.784384    1.5315351    256.88742    265.77812     1.495182         7997         3000     2111.832    4.4568536 
    1800    42.537769    3374.1505    2119.2745    193.95453     1254.876    228.87267    1278.2878    206.06217            0   -887.57448    595295.57   -594866.34    201.25626    62915.208    19.693241     1.490615    259.33433    268.69821    1.4542317         7997         3000    2135.0346    4.3347884 
    1850    43.686789    3373.0801    2096.9073     191.9075    1276.1728    232.24234    1288.8335    207.69432            0   -881.18606     595295.3   -594866.71    449.25329    62899.406    19.392961    1.4938437    256.63188    265.86807    1.4715346         7997         3000    2112.5468    4.3863652 
    1900    44.831582    3375.2005    2118.5428    193.88757    1256.6577    239.93816    1267.4599    203.48349            0   -882.62156     595294.8   -594866.41    48.954349    62920.911    19.208208    1.5301983    259.42405    269.03999    1.5029426         7997         3000    2137.7503    4.4799865 
    1950    45.946909    3362.5188    2057.7897    188.32749    1304.7291    243.35439    1292.9646    217.07674            0   -877.22812    595294.86    -594866.3    659.22332    62955.536    19.166882    1.5293294    251.79358    260.51436    1.5011826         7997         3000     2070.007    4.4747403 
    2000    47.086107    3364.0996    2103.9458    192.55167    1260.1538    230.24668    1261.4571    219.50055            0   -878.40793    595293.35   -594865.99   -56.287728    63025.759    19.012791    1.4811595    257.66025    267.08386    1.4625058         7997         3000    2122.2072     4.359452 
Loop time of 47.0862 on 4 procs (4 MPI x 1 OpenMP) for 2000 steps with 4500 atoms

Pair  time (%) = 15.1343 (32.1417)
Bond  time (%) = 4.32527 (9.18585)
Kspce time (%) = 9.19324 (19.5243)
Neigh time (%) = 0.379018 (0.804946)
Comm  time (%) = 0.755126 (1.60371)
Outpt time (%) = 0.00447285 (0.00949928)
Other time (%) = 17.2948 (36.73)

Nlocal:    1125 ave 1198 max 970 min
Histogram: 1 0 0 0 0 0 0 1 0 2
Nghost:    5299.5 ave 5450 max 5228 min
Histogram: 2 0 1 0 0 0 0 0 0 1
Neighs:    196287 ave 210138 max 179554 min
Histogram: 1 0 0 0 0 1 1 0 0 1

Total # of neighbors = 785148
Ave neighs/atom = 174.477
Ave special neighs/atom = 13.3333
Neighbor list builds = 31
Dangerous builds = 0
