LAMMPS (15 Jul 2015)
WARNING: OMP_NUM_THREADS environment is not set. (../comm.cpp:89)
  using 1 OpenMP thread(s) per MPI task
# 250 butane system for drude polarizability example (Nose-Hoover)

units real
boundary p p p

atom_style full
bond_style harmonic
angle_style harmonic
dihedral_style opls
special_bonds lj/coul 0.0 0.0 0.5

pair_style hybrid/overlay lj/cut/coul/long 8.0 8.0 thole 2.089 8.0
pair_modify mix geometric tail yes
kspace_style pppm 1.0e-4

read_data data.drude
  orthogonal box = (-19.1 -19.0999 -19.1) to (19.1 19.1 19.1)
  2 by 1 by 2 MPI processor grid
  reading atoms ...
  4500 atoms
  scanning bonds ...
  5 = max bonds/atom
  scanning angles ...
  6 = max angles/atom
  scanning dihedrals ...
  9 = max dihedrals/atom
  reading bonds ...
  4250 bonds
  reading angles ...
  6000 angles
  reading dihedrals ...
  6750 dihedrals
  5 = max # of 1-2 neighbors
  8 = max # of 1-3 neighbors
  12 = max # of 1-4 neighbors
  17 = max # of special neighbors

group gBUTANE molecule 1:250
4500 atoms in group gBUTANE
group gCORES type 1 2 3
3500 atoms in group gCORES
group gDRUDES type 4 5
1000 atoms in group gDRUDES

pair_coeff    1    1 lj/cut/coul/long 0.065997 3.500000 # C3H C3H
pair_coeff    1    2 lj/cut/coul/long 0.065997 3.500000 # C3H C2H
pair_coeff    1    3 lj/cut/coul/long 0.044496 2.958040 # C3H H
pair_coeff    2    2 lj/cut/coul/long 0.065997 3.500000 # C2H C2H
pair_coeff    2    3 lj/cut/coul/long 0.044496 2.958040 # C2H H
pair_coeff    3    3 lj/cut/coul/long 0.029999 2.500000 # H H
pair_coeff    *  4*5 lj/cut/coul/long 0.000000 0.000000 # No lj for drudes
pair_coeff    1    * thole 1.368000
pair_coeff    2    * thole 1.368000
pair_coeff    4    * thole 1.368000
pair_coeff    5    * thole 1.368000

neighbor 2.0 bin

variable vTEMP   equal 260.0
variable vTEMP_D equal 1.0
variable vPRESS  equal 1.0

velocity gCORES  create ${vTEMP} 12345
velocity gCORES  create 260 12345
velocity gDRUDES create ${vTEMP_D} 12345
velocity gDRUDES create 1 12345

fix fDRUDE all drude 1 1 0 2 2

fix fSHAKE gCORES shake 0.0001 20 0 b 2 4
  0 = # of size 2 clusters
  500 = # of size 3 clusters
  500 = # of size 4 clusters
  0 = # of frozen angles

compute cTEMP_DRUDE gDRUDES temp
compute cTEMP_DRUDE_DRUDE gDRUDES temp/drude
compute cTEMP_CORE gCORES temp/com

fix fDIRECT all drude/transform/direct
fix fNPT gCORES npt temp ${vTEMP} ${vTEMP} 100.0 iso ${vPRESS} ${vPRESS} 500.0
fix fNPT gCORES npt temp 260 ${vTEMP} 100.0 iso ${vPRESS} ${vPRESS} 500.0
fix fNPT gCORES npt temp 260 260 100.0 iso ${vPRESS} ${vPRESS} 500.0
fix fNPT gCORES npt temp 260 260 100.0 iso 1 ${vPRESS} 500.0
fix fNPT gCORES npt temp 260 260 100.0 iso 1 1 500.0
fix_modify fNPT temp cTEMP_CORE press thermo_press
WARNING: Temperature for fix modify is not for group all (../fix_nh.cpp:1349)
fix fNVT gDRUDES nvt temp ${vTEMP_D} ${vTEMP_D} 100.0
fix fNVT gDRUDES nvt temp 1 ${vTEMP_D} 100.0
fix fNVT gDRUDES nvt temp 1 1 100.0
fix fINVERSE all drude/transform/inverse

fix fMOMENTUM all momentum 100 linear 1 1 1

thermo_style custom step cpu etotal ke temp pe ebond eangle edihed eimp evdwl ecoul elong press vol c_cTEMP_DRUDE c_cTEMP_DRUDE_DRUDE c_cTEMP_CORE
thermo 50

timestep 0.5
run 2000
PPPM initialization ...
  G vector (1/distance) = 0.367867
  grid = 36 36 36
  stencil order = 5
  estimated absolute RMS force accuracy = 0.031354
  estimated relative force accuracy = 9.44215e-05
  using double precision FFTs
  3d grid and FFT values/proc = 26875 11664
Rebuild special list taking Drude particles into account
Old max number of 1-2 to 1-4 neighbors: 17
New max number of 1-2 to 1-4 neighbors: 17 (+0)
Neighbor list info ...
  2 neighbor list requests
  update every 1 steps, delay 10 steps, check yes
  master list distance cutoff = 10
Memory usage per processor = 14.6614 Mbytes
Step CPU TotEng KinEng Temp PotEng E_bond E_angle E_dihed E_impro E_vdwl E_coul E_long Press Volume cTEMP_DR cTEMP_DR cTEMP_CO 
       0            0    6535.5187      2714.74    248.45112    3820.7787    3724.3278    140.75328    1.4735401            0   -518.77975    595169.42   -594696.41    -353319.1    55742.797            1    19.693196    341.28048 
      50    1.4648991    3170.4168    1929.6689    176.60196    1240.7479    855.64091    668.01143    115.06625            0   -799.35441    595243.09   -594841.71    1724.8701    56248.701    154.59876    159.70179    184.91335 
     100    2.8371711    2482.4931    1828.3276    167.32728    654.16544    363.58878    696.97167    162.17285            0   -1011.0545    595307.07   -594864.58    141.55267    57219.514    76.081738     69.54155     201.5849 
     150    4.1415131    2306.1153    1771.5618    162.13211    534.55351    237.82308    696.85973    156.42511            0   -980.61107    595290.61   -594866.55    3518.9495    57980.609    40.949875    28.685343     207.6063 
     200    5.4286671    2253.5343    1704.8037    156.02245    548.73059    240.06283    716.68754    155.67882            0   -993.69431    595297.43   -594867.44    903.28365    58727.085    30.796226    16.567533    203.01121 
     250     6.712502    2265.2494    1705.1841    156.05726    560.06534    185.79234    829.59877    153.94622            0    -1036.966    595295.24   -594867.55   -179.28437     59346.61    26.198656    10.533648    204.78203 
     300    7.9875221    2307.2457    1808.8576     165.5454    498.38812    148.05737    785.92199    138.20032            0   -1004.0081    595298.22      -594868    1769.0501    59732.531    24.126182    6.9362864    218.60597 
     350    9.2534852    2349.1844    1731.3374     158.4508      617.847    193.65194    812.63434    152.90312            0   -964.31707    595290.12   -594867.14    1904.3113    60115.832    22.013314    4.9773166    209.64216 
     400     10.70311    2402.7377    1789.3691    163.76182    613.36863     184.2931     828.3926    174.51857            0   -1003.8089    595297.01   -594867.04   -595.05256    60532.605    21.825447    3.2931528    217.01605 
     450    12.108188    2464.3635    1749.5699    160.11943    714.79358    138.72193    955.25706    167.06103            0   -971.74183    595291.63   -594866.13   -324.57301    60736.467    21.114117    2.6023678    212.27338 
     500    13.369458    2523.8623    1848.5442    169.17749    675.31814    191.67086    823.06968    160.85287            0   -923.36348    595289.48   -594866.39    2887.3454    60833.607    20.975685    2.0911727    224.78173 
     550     14.62988    2583.8884    1725.6329    157.92873    858.25542    183.84104    1012.9403    173.79131            0   -936.49955    595290.43   -594866.25    864.81922    61065.349    18.863948    1.6229651    210.10453 
     600    15.972975    2646.1121    1703.6386    155.91583    942.47346    180.92052    1095.6797    175.69452            0   -936.17884    595292.07   -594865.71    591.47411    61188.226    19.503407    1.3106716    207.09695 
     650     17.36772     2708.272    1852.9068    169.57675    855.36518    173.82862    972.23172    170.13626            0   -882.53478    595287.54   -594865.84    2704.1993    61165.695    21.069631    1.1094925    225.29566 
     700    18.600561    2766.0674    1795.0148    164.27851    971.05261    188.36466    1045.7478    184.91306            0   -871.87441    595289.62   -594865.72   -30.062851    61285.289    19.713134   0.98248401    218.51826 
     750    19.846533    2826.7097     1932.753    176.88422    893.95665    178.95478    986.49981    189.66909            0   -892.61549    595297.61   -594866.17   -198.88938    61374.038    21.468696   0.86396324    235.19493 
     800    21.094295    2885.1323    1817.8964    166.37262    1067.2359    200.73941    1068.2393    198.84894            0   -830.21375       595296   -594866.38    5.1580989    61322.108    20.041079   0.77600323    221.27498 
     850     22.33776    2941.1697    2014.1587    184.33441    927.01104     196.4352    949.87595    173.96109            0   -821.78375    595294.74   -594866.22   -1489.5607    61348.933    22.121253   0.73807822    245.19534 
     900    23.575299    2994.8932    1973.2319    180.58882    1021.6613    207.08253    1044.7485    183.74587            0   -849.17233    595301.15   -594865.89   -1862.3981     61448.63     20.28119   0.68997057    240.73419 
     950    24.811272    3043.9129    1941.7307    177.70585    1102.1822     240.0813    1061.0084     193.7969            0    -826.5011    595299.94   -594866.15   -1653.7106    61430.167    21.954388   0.67945791     236.1425 
    1000    26.056843    3090.5425       2035.9    186.32416    1054.6425    182.23617     1031.647     186.6962            0   -774.78478    595294.68   -594865.83    449.43904    61358.339    21.819583   0.66303522     248.0446 
    1050     27.29192    3131.4697    2083.1415    190.64767    1048.3282    220.93199    1019.5503    189.05082            0   -812.87405    595297.06   -594865.39   -831.50232    61436.198    22.163111    0.6849581    253.86136 
    1100    28.522953    3167.7606    2059.5955    188.49276    1108.1651    232.22061    1050.8543    206.61197            0   -813.07878    595296.84   -594865.28   -1540.9642    61453.999    21.212564   0.67841309    251.25414 
    1150    29.748432     3200.602    2119.2368    193.95109    1081.3652    192.25301    1007.9569      206.041            0    -752.0734    595292.23   -594865.04    788.53939    61363.925    22.364554   0.74162483    258.32852 
    1200     31.12617    3229.6948    2001.0808    183.13753     1228.614    229.90166    1117.9115    213.62224            0   -761.57383    595293.66   -594864.91   -694.08178    61430.147    21.626765   0.77650463    243.73489 
    1250    32.407922    3255.1841    2140.7265    195.91781    1114.4576    173.78634    1068.9048    230.71551            0   -791.77318    595297.67   -594864.84   -1200.1299    61501.442    21.595714   0.81794262    261.32115 
    1300    33.583258    3277.6394    2121.1188    194.12333    1156.5206    213.43529    1039.3618    237.38664            0   -759.73054    595289.98   -594863.91   -414.18251    61453.781    22.986679   0.92716637    258.33225 
    1350    34.759787    3294.8662    2092.5099    191.50505    1202.3563    203.94583    1107.6264    224.16658            0   -758.91872    595289.31   -594863.77     95.34239     61463.68    21.176444   0.97504023    255.41018 
    1400    35.940488    3304.5794    2228.8812    203.98567    1075.6982    183.46554    1041.7887    226.55205            0   -804.44896    595292.23   -594863.89    917.97192    61516.217    23.096487    1.1296184    271.85321 
    1450    37.106127    3304.1871    2070.9436    189.53132    1233.2436     193.5628    1157.3608    228.71641            0   -770.29944    595287.21   -594863.31    556.16501    61468.355    21.912665    1.2089719     252.4201 
    1500     38.27843    3299.9033    2105.7943    192.72084     1194.109    202.62783    1089.2286    226.46332            0   -744.12737    595282.87   -594862.96    2128.4186    61398.216    22.469404    1.2967901    256.59747 
    1550    39.450541    3288.4127    2076.7508     190.0628    1211.6619     178.4289    1154.2815    230.78424            0   -777.53611    595289.03   -594863.33    1437.3313    61454.637    22.279996     1.423084    253.01322 
    1600     40.62115    3275.1868    1980.1638    181.22322     1295.023    228.32447    1182.6184    235.68151            0   -777.08339    595288.58   -594863.09   -156.93521    61460.178    20.260336    1.4208364    241.61444 
    1650    41.797027    3259.8845    2018.7513    184.75472    1241.1332    226.48416    1104.8754    220.59014            0   -734.38236    595286.56      -594863    1552.5026    61372.685    20.823087    1.4886882    246.25989 
    1700    42.965836    3243.6302     2101.278    192.30751    1142.3522     159.6723    1083.4459     228.7037            0   -757.36866    595291.18   -594863.28   -189.05732     61425.57    21.335734    1.5234761    256.45384 
    1750    44.128653    3230.4963    1988.4423    181.98086     1242.054    236.82795    1092.5758    241.94086            0   -757.83184    595291.61   -594863.07   -926.14928    61460.594    21.418907    1.4602685    242.22202 
    1800    45.334728    3222.9079    2060.6374    188.58811    1162.2705    204.50379    1030.7017    227.95501            0   -726.35145    595288.76    -594863.3    713.07373     61398.91    20.807494     1.400006    251.53705 
    1850    46.673054    3220.3591    2055.6675    188.13327    1164.6916    187.83743    1065.7975    225.28772            0   -740.48327    595289.57   -594863.32    738.73734    61427.696    20.684658     1.280078    250.95764 
    1900     47.90673    3221.9253    2063.5694    188.85645    1158.3558    231.23436    1036.3501     222.7053            0   -761.07812    595292.13   -594862.99   -263.63741    61508.652    20.797807    1.2468493    251.90986 
    1950    49.087169    3228.0588    2053.0972    187.89804    1174.9616    199.91982    1049.1209    236.60375            0   -737.75645    595290.28   -594863.21   -388.07909    61492.831    21.099212    1.1225534    250.47896 
    2000    50.274404    3238.3119    2047.6547    187.39994    1190.6572    188.44411    1060.0976    232.27982            0   -718.24009    595291.35   -594863.27    744.01228    61479.172    20.757622    1.0756273    249.92199 
Loop time of 50.2745 on 4 procs (4 MPI x 1 OpenMP) for 2000 steps with 4500 atoms

Pair  time (%) = 14.8446 (29.5272)
Bond  time (%) = 4.39154 (8.73512)
Kspce time (%) = 9.33283 (18.5637)
Neigh time (%) = 0.421398 (0.838194)
Comm  time (%) = 0.367158 (0.730305)
Outpt time (%) = 0.00456822 (0.00908655)
Other time (%) = 20.9124 (41.5964)

Nlocal:    1125 ave 1170 max 1085 min
Histogram: 2 0 0 0 0 0 0 0 1 1
Nghost:    5520.5 ave 5577 max 5470 min
Histogram: 2 0 0 0 0 0 0 0 1 1
Neighs:    181205 ave 186197 max 176287 min
Histogram: 2 0 0 0 0 0 0 0 1 1

Total # of neighbors = 724820
Ave neighs/atom = 161.071
Ave special neighs/atom = 13.3333
Neighbor list builds = 37
Dangerous builds = 0
