LAMMPS (8 Jul 2015)
# 250 butane system for drude polarizability example (Nose-Hoover)

units real
boundary p p p

atom_style full
bond_style harmonic
angle_style harmonic
dihedral_style opls
special_bonds lj/coul 0.0 0.0 0.5

pair_style hybrid/overlay lj/cut/coul/long 8.0 8.0 thole 2.089 8.0
pair_modify mix geometric tail yes
kspace_style pppm 1.0e-4

read_data data.butane
  orthogonal box = (-19.1 -19.0999 -19.1) to (19.1 19.1 19.1)
  2 by 1 by 2 MPI processor grid
  reading atoms ...
  4500 atoms
  scanning bonds ...
  5 = max bonds/atom
  scanning angles ...
  6 = max angles/atom
  scanning dihedrals ...
  9 = max dihedrals/atom
  reading bonds ...
  4250 bonds
  reading angles ...
  6000 angles
  reading dihedrals ...
  6750 dihedrals
  5 = max # of 1-2 neighbors
  8 = max # of 1-3 neighbors
  12 = max # of 1-4 neighbors
  17 = max # of special neighbors

group gBUTANE molecule 1:250
4500 atoms in group gBUTANE
group gCORES type 1 2 3
3500 atoms in group gCORES
group gDRUDES type 4 5
1000 atoms in group gDRUDES

pair_coeff    1    1 lj/cut/coul/long 0.065997 3.500000 # C3H C3H
pair_coeff    1    2 lj/cut/coul/long 0.065997 3.500000 # C3H C2H
pair_coeff    1    3 lj/cut/coul/long 0.044496 2.958040 # C3H H
pair_coeff    2    2 lj/cut/coul/long 0.065997 3.500000 # C2H C2H
pair_coeff    2    3 lj/cut/coul/long 0.044496 2.958040 # C2H H
pair_coeff    3    3 lj/cut/coul/long 0.029999 2.500000 # H H
pair_coeff    *  4*5 lj/cut/coul/long 0.000000 0.000000 # No lj for drudes
pair_coeff    1    * thole 1.368000
pair_coeff    2    * thole 1.368000
pair_coeff    4    * thole 1.368000
pair_coeff    5    * thole 1.368000

neighbor 2.0 bin

variable vTEMP   equal 260.0
variable vTEMP_D equal 1.0
variable vPRESS  equal 1.0

velocity gCORES  create ${vTEMP} 12345
velocity gCORES  create 260 12345
velocity gDRUDES create ${vTEMP_D} 12345
velocity gDRUDES create 1 12345

fix fDRUDE all drude C C N D D

fix fSHAKE gCORES shake 0.0001 20 0 b 2 4
  0 = # of size 2 clusters
  500 = # of size 3 clusters
  500 = # of size 4 clusters
  0 = # of frozen angles

comm_modify vel yes
compute cTEMP_CORE gCORES temp/com
compute cTEMP all temp/drude

fix fDIRECT all drude/transform/direct
fix fNPT gCORES npt temp ${vTEMP} ${vTEMP} 100.0 iso ${vPRESS} ${vPRESS} 500.0
fix fNPT gCORES npt temp 260 ${vTEMP} 100.0 iso ${vPRESS} ${vPRESS} 500.0
fix fNPT gCORES npt temp 260 260 100.0 iso ${vPRESS} ${vPRESS} 500.0
fix fNPT gCORES npt temp 260 260 100.0 iso 1 ${vPRESS} 500.0
fix fNPT gCORES npt temp 260 260 100.0 iso 1 1 500.0
fix_modify fNPT temp cTEMP_CORE press thermo_press
WARNING: Temperature for fix modify is not for group all (../fix_nh.cpp:1349)
fix fNVT gDRUDES nvt temp ${vTEMP_D} ${vTEMP_D} 100.0
fix fNVT gDRUDES nvt temp 1 ${vTEMP_D} 100.0
fix fNVT gDRUDES nvt temp 1 1 100.0
fix fINVERSE all drude/transform/inverse

fix fMOMENTUM all momentum 100 linear 1 1 1

thermo_style custom step cpu etotal ke temp pe ebond eangle edihed eimp evdwl ecoul elong press vol c_cTEMP[1] c_cTEMP[2]
thermo 50

timestep 0.5
run 2000
PPPM initialization ...
  G vector (1/distance) = 0.367867
  grid = 36 36 36
  stencil order = 5
  estimated absolute RMS force accuracy = 0.031354
  estimated relative force accuracy = 9.44215e-05
  using double precision FFTs
  3d grid and FFT values/proc = 26875 11664
Rebuild special list taking Drude particles into account
Old max number of 1-2 to 1-4 neighbors: 17
New max number of 1-2 to 1-4 neighbors: 17 (+0)
Neighbor list info ...
  2 neighbor list requests
  update every 1 steps, delay 10 steps, check yes
  master list distance cutoff = 10
Memory usage per processor = 14.7792 Mbytes
Step CPU TotEng KinEng Temp PotEng E_bond E_angle E_dihed E_impro E_vdwl E_coul E_long Press Volume cTEMP[1] cTEMP[2] 
       0            0    6535.5187      2714.74    248.45112    3820.7787    3724.3278    140.75328    1.4735401            0   -518.77975    595169.42   -594696.41    -353319.1    55742.797    334.61375    18.435655 
      50    1.5739489    3170.4168    1929.6689    176.60196    1240.7479    855.64091    668.01143    115.06625            0   -799.35441    595243.09   -594841.71    1724.8701    56248.701    186.91808    148.91569 
     100     3.149637    2482.4931    1828.3276    167.32728    654.16548    363.58878    696.97167    162.17285            0   -1011.0545    595307.07   -594864.58    141.55265    57219.514    205.69547    64.844783 
     150     4.719996    2306.1153    1771.5618    162.13211    534.55354    237.82308    696.85973    156.42511            0   -980.61107    595290.61   -594866.55    3518.9496    57980.609    212.84036    26.747967 
     200    6.2940791    2253.5339    1704.8035    156.02244    548.73041    240.06268    716.68754    155.67882            0   -993.69432    595297.43   -594867.44    903.28373    58727.085    208.67915     15.44852 
     250     7.829895    2265.2496     1705.184    156.05726    560.06564    185.79226    829.59877    153.94622            0    -1036.966    595295.24   -594867.55   -179.28421     59346.61    210.83689    9.8221917 
     300     9.368257    2307.2457    1808.8575    165.54539    498.38813    148.05729      785.922    138.20032            0   -1004.0081    595298.22      -594868      1769.05    59732.531    225.13741    6.4677911 
     350    10.894967    2349.1834    1731.3369    158.45075    617.84651    193.65165    812.63436    152.90312            0   -964.31706    595290.12   -594867.14    1904.3122    60115.832       216.07    4.6409906 
     400    12.414513    2402.7372    1789.3689    163.76181    613.36825    184.29261    828.39255    174.51857            0   -1003.8089    595297.01   -594867.04    -595.0534    60532.605    223.95957    3.0706661 
     450    13.932073    2464.3635    1749.5697    160.11941    714.79381    138.72206    955.25702    167.06103            0   -971.74183    595291.63   -594866.13   -324.57302    60736.467    219.19419    2.4265257 
     500    15.446776    2523.8628    1848.5447    169.17753    675.31818    191.67095    823.06955    160.85287            0   -923.36347    595289.48   -594866.39    2887.3489    60833.607    231.82436    1.9501215 
     550    16.961944    2583.8888    1725.6332    157.92875    858.25561     183.8418    1012.9403     173.7913            0   -936.49953    595290.43   -594866.25    864.81273    61065.349    216.52528    1.5134258 
     600    18.479013    2646.1124    1703.6387    155.91584    942.47365    180.92002    1095.6795    175.69454            0   -936.17878    595292.07   -594865.71    591.47493    61188.226     213.8675    1.2221569 
     650    19.994035    2708.2723     1852.907    169.57677    855.36529    173.82948    972.23163    170.13628            0   -882.53471    595287.54   -594865.84    2704.1956    61165.695    232.71647    1.0346462 
     700    21.501085    2766.0676     1795.015    164.27853     971.0526     188.3643    1045.7477    184.91307            0   -871.87439    595289.62   -594865.72    -30.06509    61285.289    225.47782   0.91613328 
     750    23.005237    2826.7098    1932.7532    176.88423    893.95663     178.9553    986.49978    189.66912            0   -892.61542    595297.61   -594866.17   -198.88438    61374.038    242.84736   0.80568587 
     800    24.511391    2885.1326    1817.8967    166.37265    1067.2359    200.73904    1068.2392    198.84899            0   -830.21376       595296   -594866.38    5.1621121    61322.108    228.42862   0.72366244 
     850    26.010476    2941.1694    2014.1588    184.33442    927.01058    196.43509    949.87591    173.96105            0   -821.78421    595294.74   -594866.22   -1489.5569    61348.933     253.1326   0.68827667 
     900    27.405801    2994.8933    1973.2319    180.58882    1021.6614    207.08344    1044.7485    183.74582            0   -849.17227    595301.15   -594865.89   -1862.3953     61448.63    248.00065   0.64332683 
     950    28.781289    3043.9129     1941.731    177.70587     1102.182    240.07996    1061.0086    193.79689            0   -826.50118    595299.94   -594866.15   -1653.7115    61430.167    244.04133   0.63361534 
    1000    30.153919    3090.5426    2035.9002    186.32417    1054.6425    182.23666     1031.647    186.69626            0   -774.78494    595294.68   -594865.83    449.43137    61358.339    255.89401   0.61829095 
    1050    31.565919    3131.4696    2083.1413    190.64765    1048.3284    220.93119    1019.5502    189.05089            0   -812.87406    595297.06   -594865.39   -831.50244    61436.198    261.82952   0.63867473 
    1100    32.921867    3167.7554    2059.5958    188.49279    1108.1595    232.22141    1050.8541    206.61166            0   -813.07833    595296.83   -594865.28   -1541.0017    61453.998    258.86969   0.63256043 
    1150    34.278968     3200.602    2119.2366    193.95107    1081.3654    192.25281    1007.9568    206.04109            0   -752.07334    595292.23   -594865.04    788.54412    61363.924    266.35066   0.69154037 
    1200    35.636767    3229.6944    2001.0803    183.13748    1228.6142    229.90093    1117.9115    213.62241            0   -761.57336    595293.66   -594864.91   -694.08132    61430.146    251.47383   0.72409185 
    1250    36.992739    3255.1844    2140.7274    195.91789     1114.457    173.78712    1068.9042    230.71531            0   -791.77358    595297.67   -594864.84   -1200.1275    61501.441     269.0276   0.76274389 
    1300    38.344212    3277.6445     2121.118    194.12325    1156.5266    213.43447    1039.3618    237.38678            0   -759.73027    595289.98   -594863.91   -414.13975    61453.781     266.5225    0.8644521 
    1350    39.703741    3294.8657    2092.5097    191.50504    1202.3561    203.94741    1107.6264    224.16616            0   -758.91884    595289.31   -594863.77    95.337675     61463.68    262.90671   0.90908436 
    1400    41.054932      3304.58    2228.8811    203.98566    1075.6988     183.4644    1041.7889     226.5516            0    -804.4482    595292.23   -594863.89    917.98956    61516.218    280.00881    1.0532761 
    1450    42.424853    3304.1872    2070.9423    189.53121    1233.2449    193.56369    1157.3611    228.71713            0   -770.29937    595287.21   -594863.31     556.1609    61468.357    260.11159    1.1273152 
    1500    43.776322    3299.9034    2105.7945    192.72086    1194.1089    202.62733    1089.2291    226.46359            0   -744.12806    595282.87   -594862.96    2128.4193     61398.22    264.46548    1.2091343 
    1550    45.126844    3288.4128     2076.753      190.063    1211.6598     178.4306    1154.2811    230.78228            0   -777.53622    595289.03   -594863.33    1437.3315    61454.641    260.76775    1.3269187 
    1600    46.477644    3275.1877    1980.1605    181.22292    1295.0273    228.32196    1182.6192    235.68127            0    -777.0787    595288.58   -594863.09   -156.89131    61460.182     248.6167     1.324926 
    1650    47.833175    3259.8851    2018.7448    184.75413    1241.1403    226.48777    1104.8798    220.59279            0   -734.38183    595286.56   -594862.99    1552.5557    61372.689    253.44748    1.3871239 
    1700    49.188917    3243.6314     2101.274    192.30714    1142.3574     159.6672    1083.4504    228.70473            0   -757.36869    595291.19   -594863.29   -189.09602    61425.573    263.81754    1.4204223 
    1750    50.539078    3230.4978    1988.4506    181.98162    1242.0471    236.83009    1092.5754    241.93487            0   -757.83317    595291.61   -594863.07   -926.26668    61460.594    249.64607    1.3611295 
    1800    51.943172    3222.9144    2060.6354    188.58792     1162.279    204.50373    1030.7039    227.95326            0   -726.35135    595288.77    -594863.3    713.08755     61398.91    258.74838    1.3047938 
    1850    53.296346    3220.3641    2055.6715    188.13363    1164.6927    187.83015    1065.8018    225.28811            0   -740.48884    595289.58   -594863.32    738.66679    61427.697    258.16493    1.1953644 
    1900    54.653774     3221.927     2063.572    188.85668     1158.355    231.23789    1036.3545    222.70642            0   -761.08399    595292.13   -594862.99   -263.78813    61508.644    259.17082    1.1634648 
    1950     56.01025    3228.0612     2053.095    187.89784    1174.9662    199.90433    1049.1255     236.6038            0   -737.75434    595290.29   -594863.21     -388.002    61492.809    257.89652    1.0467785 
    2000     57.37535    3238.3155    2047.6578    187.40022    1190.6577    188.45845    1060.0983    232.27566            0   -718.23966    595291.33   -594863.27    744.04672    61479.141    257.22896    1.0028454 
Loop time of 57.3754 on 4 procs for 2000 steps with 4500 atoms

Pair  time (%) = 14.8348 (25.8557)
Bond  time (%) = 4.44777 (7.75204)
Kspce time (%) = 12.7466 (22.2162)
Neigh time (%) = 0.445298 (0.776112)
Comm  time (%) = 1.17977 (2.05624)
Outpt time (%) = 0.00394994 (0.00688437)
Other time (%) = 23.7172 (41.3368)

Nlocal:    1125 ave 1170 max 1085 min
Histogram: 2 0 0 0 0 0 0 0 1 1
Nghost:    5520.5 ave 5577 max 5470 min
Histogram: 2 0 0 0 0 0 0 0 1 1
Neighs:    181206 ave 186197 max 176288 min
Histogram: 2 0 0 0 0 0 0 0 1 1

Total # of neighbors = 724823
Ave neighs/atom = 161.072
Ave special neighs/atom = 13.3333
Neighbor list builds = 37
Dangerous builds = 0
