LAMMPS (8 Jul 2015)
# 250 butane system for drude polarizability example (Nose-Hoover)

units real
boundary p p p

atom_style full
bond_style harmonic
angle_style harmonic
dihedral_style opls
special_bonds lj/coul 0.0 0.0 0.5

pair_style hybrid/overlay lj/cut/coul/long 8.0 8.0 thole 2.089 8.0
pair_modify mix geometric tail yes
kspace_style pppm 1.0e-4

read_data data.butane
  orthogonal box = (-19.1 -19.0999 -19.1) to (19.1 19.1 19.1)
  2 by 1 by 2 MPI processor grid
  reading atoms ...
  4500 atoms
  scanning bonds ...
  5 = max bonds/atom
  scanning angles ...
  6 = max angles/atom
  scanning dihedrals ...
  9 = max dihedrals/atom
  reading bonds ...
  4250 bonds
  reading angles ...
  6000 angles
  reading dihedrals ...
  6750 dihedrals
  5 = max # of 1-2 neighbors
  8 = max # of 1-3 neighbors
  12 = max # of 1-4 neighbors
  17 = max # of special neighbors

group gBUTANE molecule 1:250
4500 atoms in group gBUTANE
group gCORES type 1 2 3
3500 atoms in group gCORES
group gDRUDES type 4 5
1000 atoms in group gDRUDES

pair_coeff    1    1 lj/cut/coul/long 0.065997 3.500000 # C3H C3H
pair_coeff    1    2 lj/cut/coul/long 0.065997 3.500000 # C3H C2H
pair_coeff    1    3 lj/cut/coul/long 0.044496 2.958040 # C3H H
pair_coeff    2    2 lj/cut/coul/long 0.065997 3.500000 # C2H C2H
pair_coeff    2    3 lj/cut/coul/long 0.044496 2.958040 # C2H H
pair_coeff    3    3 lj/cut/coul/long 0.029999 2.500000 # H H
pair_coeff    *  4*5 lj/cut/coul/long 0.000000 0.000000 # No lj for drudes
pair_coeff    1    * thole 1.368000
pair_coeff    2    * thole 1.368000
pair_coeff    4    * thole 1.368000
pair_coeff    5    * thole 1.368000

neighbor 2.0 bin

variable vTEMP   equal 260.0
variable vTEMP_D equal 1.0
variable vPRESS  equal 1.0

velocity gCORES  create ${vTEMP} 12345
velocity gCORES  create 260 12345
velocity gDRUDES create ${vTEMP_D} 12345
velocity gDRUDES create 1 12345

fix fDRUDE all drude Core Core NoPol Drude Drude

fix fSHAKE gCORES shake 0.0001 20 0 b 2 4
  0 = # of size 2 clusters
  500 = # of size 3 clusters
  500 = # of size 4 clusters
  0 = # of frozen angles

compute cTEMP_CORE gCORES temp/com

fix fDIRECT all drude/transform/direct
fix fNPT gCORES npt temp ${vTEMP} ${vTEMP} 100.0 iso ${vPRESS} ${vPRESS} 500.0
fix fNPT gCORES npt temp 260 ${vTEMP} 100.0 iso ${vPRESS} ${vPRESS} 500.0
fix fNPT gCORES npt temp 260 260 100.0 iso ${vPRESS} ${vPRESS} 500.0
fix fNPT gCORES npt temp 260 260 100.0 iso 1 ${vPRESS} 500.0
fix fNPT gCORES npt temp 260 260 100.0 iso 1 1 500.0
fix_modify fNPT temp cTEMP_CORE press thermo_press
WARNING: Temperature for fix modify is not for group all (../fix_nh.cpp:1349)
fix fNVT gDRUDES nvt temp ${vTEMP_D} ${vTEMP_D} 100.0
fix fNVT gDRUDES nvt temp 1 ${vTEMP_D} 100.0
fix fNVT gDRUDES nvt temp 1 1 100.0
fix fINVERSE all drude/transform/inverse temp

fix fMOMENTUM all momentum 100 linear 1 1 1

thermo_style custom step cpu etotal ke temp pe ebond eangle edihed eimp evdwl ecoul elong press vol f_fINVERSE[1] f_fINVERSE[2]
thermo 50

timestep 0.5
run 2000
PPPM initialization ...
  G vector (1/distance) = 0.367867
  grid = 36 36 36
  stencil order = 5
  estimated absolute RMS force accuracy = 0.031354
  estimated relative force accuracy = 9.44215e-05
  using double precision FFTs
  3d grid and FFT values/proc = 26875 11664
Rebuild special list taking Drude particles into account
Old max number of 1-2 to 1-4 neighbors: 17
New max number of 1-2 to 1-4 neighbors: 17 (+0)
Neighbor list info ...
  2 neighbor list requests
  update every 1 steps, delay 10 steps, check yes
  master list distance cutoff = 10
Memory usage per processor = 14.6614 Mbytes
Step CPU TotEng KinEng Temp PotEng E_bond E_angle E_dihed E_impro E_vdwl E_coul E_long Press Volume fINVERSE fINVERSE 
       0            0    6535.5187      2714.74    248.45112    3820.7787    3724.3278    140.75328    1.4735401            0   -518.77975    595169.42   -594696.41    -353319.1    55742.797     334.6194    18.363137 
      50    1.4375122    3170.4168    1929.6689    176.60196    1240.7479    855.64091    668.01143    115.06625            0   -799.35441    595243.09   -594841.71    1724.8701    56248.701    186.91808    148.91569 
     100    2.9819372    2482.4931    1828.3276    167.32728    654.16549    363.58878    696.97167    162.17285            0   -1011.0545    595307.07   -594864.58    141.55267    57219.514    205.69547    64.844783 
     150    4.3924382    2306.1153    1771.5618    162.13211    534.55351    237.82308    696.85973    156.42511            0   -980.61107    595290.61   -594866.55    3518.9496    57980.609    212.84036    26.747968 
     200    5.6600592    2253.5343    1704.8036    156.02245    548.73069    240.06282    716.68755    155.67882            0   -993.69432    595297.43   -594867.44    903.28346    58727.085    208.67915    15.448574 
     250    6.9074781    2265.2493    1705.1838    156.05724    560.06552    185.79217    829.59876    153.94622            0    -1036.966    595295.24   -594867.55   -179.28475     59346.61    210.83689    9.8221204 
     300    8.1292012    2307.2454    1808.8574    165.54538    498.38795    148.05726      785.922    138.20032            0   -1004.0081    595298.22      -594868    1769.0499    59732.531    225.13741    6.4677582 
     350     9.343153    2349.1825    1731.3362    158.45069    617.84627    193.65099     812.6343    152.90312            0   -964.31707    595290.12   -594867.14    1904.3111    60115.832    216.06999    4.6407842 
     400    10.565207    2402.7364    1789.3686    163.76177    613.36786    184.29199    828.39261    174.51857            0   -1003.8089    595297.01   -594867.04   -595.05401    60532.605    223.95956    3.0705652 
     450      11.7941    2464.3634    1749.5695    160.11939     714.7939    138.72217    955.25704    167.06103            0   -971.74184    595291.63   -594866.13    -324.5733    60736.467    219.19419    2.4264639 
     500    13.019955     2523.861    1848.5436    169.17743    675.31738    191.66998    823.06965    160.85287            0   -923.36348    595289.48   -594866.39    2887.3435    60833.607    231.82438    1.9497225 
     550     14.24467    2583.8871    1725.6327    157.92871    858.25445     183.8404    1012.9401    173.79129            0   -936.49949    595290.43   -594866.25    864.81894    61065.349    216.52528    1.5132531 
     600     15.46753    2646.1116    1703.6383     155.9158    942.47326    180.92046    1095.6795    175.69452            0   -936.17882    595292.07   -594865.71    591.47557    61188.226     213.8675     1.222033 
     650    16.694263    2708.2712    1852.9066    169.57673    855.36464    173.82829    972.23175    170.13629            0   -882.53478    595287.54   -594865.84    2704.2032    61165.695    232.71648    1.0344656 
     700    17.964113     2766.067    1795.0148    164.27852     971.0522    188.36465    1045.7476    184.91306            0    -871.8744    595289.62   -594865.72   -30.058913    61285.289    225.47782   0.91608672 
     750    19.311138    2826.7097    1932.7529    176.88421    893.95681    178.95463    986.49977    189.66911            0   -892.61549    595297.61   -594866.17   -198.88517    61374.038    242.84737   0.80557271 
     800    20.540448    2885.1322    1817.8964    166.37262    1067.2359    200.73923    1068.2393    198.84896            0   -830.21374       595296   -594866.38    5.1606747    61322.108    228.42863   0.72353591 
     850    21.761593    2941.1692    2014.1586     184.3344     927.0106    196.43531    949.87605    173.96105            0   -821.78421    595294.74   -594866.22   -1489.5666    61348.933    253.13262   0.68815103 
     900    23.027971    2994.8934    1973.2322    180.58885    1021.6612    207.08144    1044.7486    183.74585            0   -849.17232    595301.15   -594865.89    -1862.396     61448.63    248.00069   0.64336173 
     950    24.366317    3043.9131    1941.7307    177.70585    1102.1824    240.08227    1061.0083    193.79687            0   -826.50109    595299.94   -594866.15   -1653.7165    61430.167    244.04133    0.6335402 
    1000    25.584091    3090.5421    2035.8999    186.32415    1054.6422    182.23528    1031.6469    186.69623            0   -774.78483    595294.68   -594865.83    449.43916    61358.339    255.89399   0.61823056 
    1050    26.788505    3131.4704    2083.1412    190.64764    1048.3292    220.93289    1019.5502    189.05091            0    -812.8735    595297.06   -594865.39    -831.4965    61436.198    261.82953   0.63863757 
    1100    28.132245    3167.7606     2059.596     188.4928    1108.1646     232.2196    1050.8541    206.61183            0   -813.07878    595296.84   -594865.28   -1540.9627    61453.998     258.8697    0.6325986 
    1150     29.44649    3200.6019    2119.2371    193.95112    1081.3647     192.2535     1007.957    206.04099            0   -752.07338    595292.23   -594865.04    788.54352    61363.925    266.35071   0.69158409 
    1200    30.654284    3229.6948    2001.0805    183.13751    1228.6143    229.90128    1117.9115    213.62226            0   -761.57364    595293.66   -594864.91   -694.08361    61430.146    251.47386   0.72408903 
    1250    31.855407    3255.1844    2140.7269    195.91785    1114.4574    173.78645    1068.9048    230.71533            0    -791.7733    595297.67   -594864.84   -1200.1275    61501.441    269.02754   0.76274422 
    1300    33.051382      3277.64    2121.1193    194.12337    1156.5207    213.43524    1039.3615    237.38675            0   -759.73065    595289.98   -594863.91   -414.18064    61453.781     266.5226    0.8646194 
    1350    34.244011    3294.8665      2092.51    191.50507    1202.3565    203.94572    1107.6263    224.16658            0   -758.91874    595289.31   -594863.77    95.340006    61463.681     262.9067   0.90921529 
    1400    35.435424     3304.579    2228.8813    203.98568    1075.6976    183.46687    1041.7886    226.55211            0   -804.44938    595292.23   -594863.89    917.96656    61516.219    280.00881    1.0533386 
    1450    36.625774    3304.1876    2070.9435    189.53132    1233.2441    193.56185    1157.3611    228.71668            0   -770.29969    595287.21   -594863.31    556.16694    61468.358    260.11174     1.127315 
    1500    37.857488    3299.9039    2105.7956    192.72096    1194.1083    202.62998    1089.2284    226.46316            0   -744.12828    595282.87   -594862.96     2128.408    61398.219    264.46558    1.2092602 
    1550    39.159569    3288.4129    2076.7517    190.06288    1211.6613    178.42858    1154.2812    230.78439            0   -777.53676    595289.03   -594863.33    1437.3229     61454.64    260.76756    1.3269903 
    1600    40.384713    3275.1867    1980.1587    181.22276    1295.0279    228.32451    1182.6176     235.6828            0   -777.07884    595288.58   -594863.09   -156.90791    61460.178    248.61651    1.3248718 
    1650    41.578377    3259.8847    2018.7456     184.7542    1241.1391    226.48899    1104.8801    220.59011            0   -734.38178    595286.56   -594862.99    1552.5593    61372.686    253.44773    1.3866986 
    1700    42.773685    3243.6301    2101.2791    192.30761     1142.351    159.66456     1083.449    228.70172            0   -757.36891    595291.19   -594863.29   -189.06393    61425.572    263.81827    1.4202022 
    1750    43.968562    3230.4961    1988.4454    181.98115    1242.0507    236.83332    1092.5754      241.938            0   -757.83258    595291.61   -594863.07   -926.26998    61460.597    249.64546    1.3610005 
    1800    45.167595    3222.9078    2060.6322    188.58763    1162.2756    204.50113     1030.701    227.95716            0   -726.35019    595288.77    -594863.3    713.05025    61398.915    258.74807    1.3045509 
    1850    46.367277    3220.3629     2055.676    188.13405    1164.6869    187.82868    1065.7988    225.28473            0   -740.48546    595289.58   -594863.32    738.75155    61427.704    258.16544    1.1955219 
    1900    47.574641    3221.9261    2063.5787    188.85729    1158.3474    231.23517    1036.3495    222.70039            0   -761.07857    595292.13   -594862.99   -263.68288    61508.662    259.17168    1.1633982 
    1950    48.868605    3228.0598    2053.0959    187.89791    1174.9639    199.90876    1049.1225    236.60264            0   -737.75351    595290.29   -594863.21    -388.0357    61492.844    257.89666    1.0466869 
    2000    50.119751    3238.3149    2047.6589    187.40033     1190.656    188.45865    1060.0947    232.27799            0   -718.24075    595291.33   -594863.27    744.03715     61479.19    257.22917     1.002696 
Loop time of 50.1198 on 4 procs for 2000 steps with 4500 atoms

Pair  time (%) = 14.7476 (29.4246)
Bond  time (%) = 4.42976 (8.83834)
Kspce time (%) = 9.37296 (18.7011)
Neigh time (%) = 0.426863 (0.851686)
Comm  time (%) = 0.299185 (0.596939)
Outpt time (%) = 0.00258839 (0.00516441)
Other time (%) = 20.8409 (41.5821)

Nlocal:    1125 ave 1170 max 1085 min
Histogram: 2 0 0 0 0 0 0 0 1 1
Nghost:    5520.5 ave 5577 max 5470 min
Histogram: 2 0 0 0 0 0 0 0 1 1
Neighs:    181206 ave 186196 max 176289 min
Histogram: 2 0 0 0 0 0 0 0 1 1

Total # of neighbors = 724823
Ave neighs/atom = 161.072
Ave special neighs/atom = 13.3333
Neighbor list builds = 37
Dangerous builds = 0
